&CONTROL
   calculation      = 'scf'
   tprnfor          = .true.
   outdir           = './'
   disk_io          = 'none'
   pseudo_dir       = '/scratch/zhouwq/DFT-feldspar-surface/script-dft'
/
&SYSTEM
   tot_charge       = 0
   ecutwfc          = 110
   input_dft        = 'SCAN'
   ntyp             = 5
   nat              = 493
   ibrav            = 0
/
&ELECTRONS
   electron_maxstep = 25
   mixing_beta      = 0.5
/
&IONS
/
&CELL
/
&FCP
/
&RISM
/
ATOMIC_SPECIES
K 39.0983 K_ONCV_PBE_sr.upf
Al 26.9815385 Al_ONCV_PBE_sr.upf
Si 28.085 Si_ONCV_PBE_sr.upf
O 15.999 O_ONCV_PBE_sr.upf
H 1.008 H_ONCV_PBE_sr.upf

K_POINTS gamma

CELL_PARAMETERS angstrom
14.38000000000000 0.00000000000000 0.00000000000000
3.79226300000000 15.03099300000000 0.00000000000000
-16.02692595000000 -16.61449229999999 28.01481620000001

ATOMIC_POSITIONS angstrom
K -13.4362292200 -12.9893925507 39.5641242843  
Al -17.0694255703 -23.8593851082 40.3428561323  
Si -15.2999607582 -12.1428029571 42.6972212858  
Si -21.0453554984 -23.8288957552 40.5624122490  
Si -17.2661117872 -11.7651812109 40.4008868230  
Si -19.0781103168 -24.1615142541 42.8609078547  
Si -13.9034526304 -10.1330009685 37.7473234325  
Si -19.0378139974 -21.9360002731 38.9268272369  
O -22.5890345565 -23.4341909976 40.4803688587  
O -17.3072374866 -12.8028088940 39.1347772154  
O -18.5605139116 -11.8133450417 41.3242551650  
O -17.7602441740 -23.9787390724 41.9421019257  
O -12.9972507387 -8.8789766517 37.1362802701  
O -20.2358675848 -22.6831823892 39.8204998737  
O -15.4530166576 -7.3264965679 37.3593582493  
O -13.7431069611 -10.1713256897 39.3207955950  
O -19.2066202545 -25.7221394009 43.4405744230  
O -17.0377018298 -10.2091894198 39.8163376724  
O -15.5541981527 -10.0085534901 37.4991121610  
O -17.6530900217 -22.3872334479 39.5712480518  
O -15.7870235654 -12.1006731576 41.1267106896  
O -20.5627073576 -23.9237964357 42.1482109306  
Al -15.2181720229 -16.3179766233 40.1644417743  
Si -17.2071131677 -14.3607050920 38.7959580241  
Si -15.8126379030 -17.7491759635 37.6638392803  
O -20.6957748613 -16.0755455935 40.3513406195  
O -13.2590345720 -11.5333082366 37.1669364832  
O -15.3878742891 -19.2013605724 37.0972996544  
O -18.4739342713 -15.1959558830 39.5149782924  
O -15.0661935983 -16.5366607330 36.8081067089  
O -15.5328736975 -17.8261950716 39.1828026146  
O -17.3309119797 -14.6153645553 37.2067975645  
O -15.8276748002 -14.9234106896 39.3073484832  
O -17.4067129857 -17.3571783538 37.5179221090  
O -26.5192972300 -27.8697623491 52.5403470211  
Al -23.1491811209 -15.8938570924 49.5938286955  
Si -21.2111992581 -17.8751433915 50.8761068542  
Si -26.4296619135 -29.5148931237 52.3096650203  
O -17.6102664135 -16.3899660389 49.1973790251  
O -24.4716797605 -20.3533676225 52.4989651355  
O -19.8232753224 -17.0461304079 50.4137023022  
O -27.3322905126 -30.4286865298 53.2620086864  
O -26.7967783559 -29.7390642139 50.7827774951  
O -21.3302967869 -17.8624172706 52.5000056858  
O -22.5470203413 -17.4588342694 50.1443598550  
O -24.8602432622 -30.0285323335 52.5132927129  
K -24.8123282132 -18.9848552808 50.2526571302  
K -19.3071674425 -24.2229469352 46.3735655945  
K -26.6964931837 -26.6772333564 50.1842209364  
Al -25.0939397944 -23.3892225550 49.7014856321  
Si -23.0084560699 -20.0094000145 47.0862625186  
Si -21.1485781449 -23.3927634940 49.4770469332  
Si -21.0251191807 -20.4611273501 49.3401745454  
Si -23.1480898209 -23.0593823632 47.1560594321  
Si -24.2739874674 -21.9162416703 52.2336248049  
Si -23.0570614339 -25.3632402154 50.9844841717  
O -19.6478281033 -23.7700410530 49.2113063909  
O -20.7295953958 -19.4393735836 50.5977196235  
O -22.9311255402 -26.8896938089 50.5738670085  
O -23.2547637364 -24.1014706223 46.0001681157  
O -19.7224299452 -20.6467769815 48.4863629900  
O -24.4029582908 -22.9868539683 48.1894859806  
O -25.0882165752 -22.6335402349 53.4667569717  
O -21.7595081563 -24.5504172862 50.4725334162  
O -23.0087673008 -25.2830253549 52.6002987278  
O -24.7615635260 -22.0396572898 50.7403550591  
O -22.7776538282 -21.5798328184 46.5576629581  
O -21.5522003170 -21.8914548719 50.0186933938  
O -22.6769387958 -22.3776522687 52.4281276717  
O -24.4216931741 -24.8239017948 50.3939318462  
O -22.2726984643 -19.9075960907 48.4827610850  
O -21.7737426037 -23.6244558831 47.9455969950  
K -17.2655360898 -16.7192931818 46.4059026966  
Al -19.3366282128 -12.0774659657 42.8425781607  
Al -20.8671108365 -27.5851615596 46.9440272947  
Si -19.1557652074 -15.9271508717 49.4247792904  
Si -24.9564952153 -27.6175810462 47.1401310081  
Si -21.1013954905 -15.4671269808 47.0625699884  
Si -22.8826762964 -27.9863383493 49.3962041778  
Si -17.4073652367 -14.0715732879 44.2189861017  
Si -22.9973909566 -25.6865556827 45.6323736002  
O -13.7719362618 -12.6114121196 42.5029585460  
O -26.4811197442 -27.2521557983 47.2128894879  
O -21.2819025506 -16.5521515839 45.8704995379  
O -22.3453758696 -15.4522858570 48.0594972334  
O -21.5992725146 -27.9139051290 48.4962081968  
O -16.1391162363 -13.1997719541 43.6393195334  
O -24.2928607921 -26.3853845510 46.3342648095  
O -23.1418777225 -25.8338536240 44.0783517244  
O -17.3751955725 -13.8976952091 45.8786638558  
O -23.0655637391 -29.4614836490 50.1749360259  
O -20.9166633517 -13.9626352826 46.4083039666  
O -18.7166266597 -13.6199282542 43.4093579136  
O -21.6237081312 -26.2001398261 46.2380539264  
O -19.7158040026 -15.8503141614 47.8810828754  
O -24.2609209636 -27.8334494744 48.6240358010  
K -20.9825882544 -15.5094285294 43.5303018772  
K -15.5276551665 -20.7221152145 39.5777314807  
K -23.1549093391 -22.8698638355 43.4983649867  
Al -18.9888254963 -20.1459639897 46.9721221532  
Al -21.1264146186 -19.5833985633 42.9062118146  
Si -19.1329918070 -16.4366784092 40.2773815047  
Si -17.1525160413 -19.6702248324 42.6169388268  
Si -17.2412152591 -16.6840706582 42.6556793154  
Si -19.2709014588 -19.2846141500 40.3471784182  
Si -21.0188497019 -18.1619613439 45.6621493477  
Si -19.1446895438 -21.4565923827 44.2774170041  
O -24.5662765547 -19.7699456102 47.2665978926  
O -15.6002929734 -20.0829700839 42.3874574609  
O -17.3193680669 -15.6828070732 43.9426799717  
O -18.9896077004 -23.0842549775 44.0684264752  
O -19.2708393081 -20.3793370265 39.1061220606  
O -15.9539305825 -16.4877904444 41.7454379159  
O -20.5535994756 -19.3638407524 41.2885562849  
O -22.4210312973 -18.8912713688 46.0384283504  
O -17.8610594822 -20.7387506402 43.6353974591  
O -19.0852319441 -21.4480000629 45.8729808502  
O -20.7636818151 -18.3294488768 44.0540188555  
O -18.9793474843 -17.8903041704 39.6196736627  
O -17.2922783449 -18.1762166681 43.3163487238  
O -19.7465221768 -18.6383974522 46.5281273376  
O -20.4689204539 -20.9285995628 43.6432416077  
O -18.6042497094 -16.6000274332 41.8264407559  
O -17.9272684422 -19.7586620774 41.1995492117  
H -24.0435956804 -20.0035373916 53.3650231677  
H -27.9336917606 -29.8358879682 53.8066167134  
H -20.8365616431 -17.1069372190 52.9770579845  
H -24.3464947720 -29.9869888212 51.6749293275  
H -26.8053591239 -27.5445914057 53.4011222595  
H -25.9991684182 -22.2275269721 53.5519220129  
H -23.0835542331 -24.4230749349 53.0210012248  
H -22.1684914786 -22.4085490212 51.6236221927  
H -13.4978491057 -8.0656661802 36.9804378497  
H -15.8243656026 -8.1950193492 37.1265951479  
H -16.0659161322 -10.2866671746 38.2546317328  
H -12.9469909287 -11.6715575930 36.2521326708  
H -15.2418628397 -19.3174820671 36.1338301041  
H -15.6592718466 -15.7816874395 36.7621624103  
H -17.6040632372 -15.5463744645 37.0455122656  
H -17.7891256170 -17.6910097654 38.3295513555  
K -6.5572000743 -13.4765684350 39.7025174763  
Al -6.0727735660 -8.8043543763 40.0468595886  
Si -8.1216485228 -12.1234243073 42.7887096712  
Si -13.7788039068 -23.8505321193 40.4651608156  
Si -10.0957721098 -11.8075949702 40.4407479043  
Si -11.8429954577 -24.2135007879 42.7239554246  
Si -6.9380469534 -10.3794547866 37.6467902636  
Si -11.9237738805 -21.9377599056 38.8026015376  
O -15.3716916023 -23.4413539331 40.5343974328  
O -10.1928617440 -12.9699365553 39.2642857086  
O -11.3691948946 -11.7220976172 41.3457065099  
O -10.5800092706 -24.1243686174 41.7175831844  
O -6.0143255755 -9.5316362470 36.5784652583  
O -13.0171531549 -22.7278420796 39.6279980652  
O -8.2756062329 -7.1299515043 37.2090387498  
O -6.4271819284 -10.3078368769 39.1254122626  
O -11.9848596760 -25.6619505535 43.4244859143  
O -9.9104058411 -10.2843554987 39.7827999353  
O -8.5652609561 -9.9557383485 37.3747263771  
O -10.4501082684 -22.3662071017 39.3296802939  
O -8.7681174249 -12.1476835379 41.2246825040  
O -13.2268712224 -23.8296861228 42.0244654853  
Al -7.9979835098 -16.5492943086 40.1858931193  
Si -9.9474552453 -14.4407354756 38.6893416379  
Si -8.6918591324 -17.9521215660 37.6875318105  
O -13.5120754121 -16.0292716721 40.4239390146  
O -6.8485358415 -11.9540894196 37.1584519960  
O -8.7566652282 -19.4662428820 37.0762485211  
O -11.3182116522 -15.2011037393 39.2773326087  
O -7.6995209298 -17.0502356448 36.7715273631  
O -8.2232561940 -17.9817640342 39.2293072095  
O -10.0926485737 -14.3062796521 37.0816913996  
O -8.6379107132 -15.1316526526 39.2947818371  
O -10.1308871152 -17.2539072468 37.4260335119  
O -18.9370134073 -27.6863193412 52.2820504158  
Al -15.9752224859 -15.8730455899 49.4411879684  
Si -13.8913817524 -17.7188758093 50.9483050376  
Si -19.0099049237 -29.2478806535 51.9244212764  
O -24.7796961098 -16.3031940753 49.2227524444  
O -17.6650624383 -20.4019932390 52.5754055625  
O -12.4984480024 -17.0046573112 50.4090598470  
O -20.1643909242 -29.9746357535 52.7945614676  
O -19.3754189540 -29.4722526351 50.4050577304  
O -14.0005645714 -17.4903453869 52.5639595091  
O -15.1222224313 -17.1476771243 50.1494025220  
O -17.5531221128 -29.8987454750 52.4855980660  
K -17.8890222928 -19.0835178058 50.1812593701  
K -12.1185259059 -24.0279453993 46.5515797409  
K -19.6488481826 -26.5472497875 49.9201612831  
Al -18.0153803474 -23.4485162522 49.6239246124  
Si -15.7672643925 -20.0035638054 47.2703598822  
Si -13.9320564031 -23.3663728576 49.6796340754  
Si -13.8384907599 -20.3768190127 49.5573293921  
Si -15.8692580268 -22.9903143265 47.2456268017  
Si -17.1693148701 -21.9702634843 52.3287951376  
Si -16.0152772687 -25.2949307873 51.0383526611  
O -26.7678785325 -23.7629901995 49.3889203256  
O -13.6573778799 -19.3006595504 50.7670091557  
O -15.5085155520 -26.7951304821 50.6729594156  
O -15.7774773612 -23.9961357942 45.8969935498  
O -12.5976700070 -20.3503944676 48.5592015121  
O -17.2523720070 -23.0353508656 48.0646999850  
O -17.7048677290 -22.9546829275 53.5352732079  
O -14.7442012966 -24.2469045679 50.7005740201  
O -16.3583452604 -25.3604616069 52.6290339250  
O -17.6444958086 -22.3754554147 50.8822701137  
O -15.4075800638 -21.4955760029 46.7254316860  
O -14.0447144969 -21.8277612989 50.2735481789  
O -15.5214193303 -21.9822515911 52.5973371615  
O -17.3658734845 -24.8636372301 50.2524970456  
O -15.2416977365 -19.9429113937 48.8175781598  
O -14.5640672729 -23.3624817684 48.1749182762  
K -10.0801868795 -16.8231711833 46.3628399220  
Al -12.2178659025 -12.0203806334 42.8770764058  
Al -13.7135639156 -27.7416605239 46.9185738331  
Si -11.9065725088 -15.8251653073 49.4703233773  
Si -17.6291884715 -27.5068117151 47.1210008907  
Si -13.9436356111 -15.4626350229 47.0955474292  
Si -15.6425528185 -27.8791259853 49.4595977048  
Si -10.1333223294 -13.9876716181 44.2995086877  
Si -15.6702815891 -25.6142834457 45.5176729384  
O -20.9602687013 -12.5154247624 42.5839613860  
O -19.2294067920 -27.2112492012 47.3094205403  
O -13.8339516818 -16.4653730432 45.8045446563  
O -15.3341669105 -15.5941008857 47.8356988732  
O -14.3987990927 -28.0071208486 48.5440735114  
O -8.8943253040 -13.1041823258 43.7504182902  
O -17.0150463573 -26.3068212107 46.1611332454  
O -15.6821984250 -25.6936783137 43.9136246052  
O -10.1301535756 -14.1361765951 45.8882689356  
O -15.8987392003 -29.3754154451 50.1090611866  
O -13.5760264762 -13.9641233570 46.5115585749  
O -11.4390599881 -13.4323277008 43.6088234049  
O -14.3649479407 -26.2394955771 46.1904287389  
O -12.7034909299 -15.9458669621 48.0354845338  
O -16.9717412061 -27.5176887186 48.5944201382  
K -13.6131980957 -15.4421242622 43.1128811158  
K -8.1705898210 -20.6422991747 39.5974218944  
K -15.3472460726 -22.7659812767 43.3221117717  
Al -11.8795653138 -20.1140620716 46.9931732865  
Al -13.9516745565 -19.6657654658 42.8595471351  
Si -11.9257504934 -16.3485135232 40.2386410160  
Si -9.9378682421 -19.5770205880 42.7324399118  
Si -10.0076821095 -16.6108893642 42.6011704874  
Si -11.9257532454 -19.3106297898 40.2989929344  
Si -13.8292869864 -18.1286432213 45.5945135772  
Si -11.8983682510 -21.5342257826 44.2581268021  
O -17.2892942495 -19.6183181928 47.2085672019  
O -22.8197006023 -19.9597064497 42.6624829137  
O -9.8095977005 -15.5180611556 43.7384919827  
O -11.5844621845 -23.1387353279 43.9335551458  
O -12.1785153997 -20.3803271881 39.1683149525  
O -8.6445039319 -16.6996716608 41.8225186817  
O -13.1035818460 -19.3187663044 41.3645965003  
O -14.9962645993 -18.8443307222 46.4757796525  
O -10.6306921194 -20.7326584071 43.6883854829  
O -11.9339558351 -21.3781234214 45.8401634941  
O -14.0121237503 -18.3520610792 43.9863830849  
O -11.7093156073 -17.8079410407 39.6279980652  
O -10.1779530905 -18.0751816943 43.4065564319  
O -12.4633033935 -18.6394422633 46.2307700742  
O -13.3062386363 -21.1408076769 43.5693625352  
O -11.3498620633 -16.1859662169 41.7387944024  
O -10.5885796503 -19.6360616754 41.1542452518  
H -18.1491034997 -20.0560333091 53.3602206278  
H -20.5709964711 -30.8235422191 52.6305547293  
H -13.9235094543 -16.5452812264 52.8396253005  
H -16.8361716834 -29.5572994462 51.9095334026  
H -18.7500896908 -27.4498056026 53.2042181227  
H -18.6223535320 -23.2646625521 53.5396755361  
H -16.8027975736 -24.5871020095 53.0248432567  
H -15.0042865192 -21.7434520592 51.7773034702  
H -5.6486191142 -8.6914154173 36.6431394626  
H -8.5016593236 -8.0745836192 37.0686444995  
H -9.2167723487 -10.3171315571 38.0080213079  
H -7.6621524254 -12.2528969318 36.6616292413  
H -8.9674308266 -19.4735648794 36.1723304658  
H -6.7713774120 -17.2579606079 36.6985287563  
H -10.2884260317 -15.1765327373 36.7148573921  
H -10.8664499233 -17.6567677408 37.9205350390  
O -21.9328264454 -31.2447897514 61.5092504064  
H -21.9760786635 -32.2129510548 61.7329687243  
H -22.3959388466 -31.0836949983 60.6566394859  
O -27.2638564900 -27.8901927786 60.0026135912  
H -28.0744824855 -27.9378094622 60.6058926474  
H -26.6553944654 -28.5788655643 60.2809207795  
O -20.9818282210 -26.4843094337 61.7952416586  
H -20.2238961529 -26.2747719031 62.3806712749  
H -21.4235375255 -27.2229523134 62.2787773862  
O -19.7105537317 -22.6508459505 60.6744889260  
H -19.4157485575 -22.3436975544 59.8077905551  
H -20.6040915153 -22.2351583345 60.9845729201  
O -19.9241885632 -27.6813170796 59.0513905177  
H -20.0947156476 -27.3949412702 59.9324164660  
H -19.5082699795 -26.9782559833 58.5219104915  
O -31.4713572539 -22.9767386229 61.5204563329  
H -31.0773421479 -22.1559654997 61.2236593658  
H -18.0105946427 -22.7561605476 61.5068491364  
O -22.7310536143 -24.4795728691 62.3790704282  
H -23.5565293392 -24.9904354912 62.3513757814  
H -22.0135440532 -25.1134794758 62.2886225931  
O -20.4784235560 -23.6564643409 53.7108860843  
H -20.7422737646 -24.0299540171 54.5779046245  
H -21.1201515975 -24.0241751048 53.0678259890  
O -21.3630596227 -24.9819906439 56.2027639641  
H -22.1461162674 -24.3933604611 56.2396634792  
H -21.7182831985 -25.8198255853 55.8821143821  
O -23.8110363285 -23.4660847794 55.8899585307  
H -24.3545628576 -22.9959019255 55.2208846775  
H -24.2397635995 -24.3373090338 55.9804864082  
O -16.2770601584 -20.6923478709 60.1580557999  
H -34.2361385187 -34.8246007940 60.3732896306  
H -29.9072808423 -20.9079435176 59.5174770169  
O -27.6645988010 -21.7992018075 54.2133918446  
H -14.1954490160 -21.8376042910 53.7810832095  
H -27.4268370021 -20.8750874666 54.0030405961  
O -28.7220675226 -33.2156942301 58.9555798463  
H -29.2643847246 -32.4048986256 58.9188404159  
H -28.8104391276 -33.5307865739 58.0242873134  
O -19.6611786174 -31.4551896543 59.9628325521  
H -19.1502798737 -30.6850511553 60.2150459403  
H -20.5512769148 -31.4326708744 60.3757709429  
O -21.1954707376 -21.4212036995 54.9807576815  
H -21.3505140667 -21.8415463789 55.8437741051  
H -21.1195728146 -22.1248953939 54.2574951695  
O -17.1080904353 -21.8880841717 56.1930788419  
H -17.2612015302 -22.6545327891 55.6450289947  
H -17.5806227033 -21.1984028293 55.7107437493  
O -30.6036919647 -34.5743733774 60.2171270409  
H -30.1961270582 -35.4010834298 60.5397776812  
H -29.9329719642 -34.1061036647 59.7219051328  
O -22.0764285795 -28.7218387772 62.8931022843  
H -22.0083935309 -29.6263068146 62.6564971509  
H -23.0160239918 -28.6140488178 63.1951820453  
O -24.3738488139 -28.6425925637 56.6445976368  
H -23.9268525550 -28.2741685693 57.4154853362  
H -23.8907829921 -29.4798799027 56.5783225859  
O -18.6942435439 -25.3739038793 57.6780241852  
H -18.8499292312 -24.4452744631 57.8921374233  
H -19.2451392433 -25.5131761915 56.9191428355  
O -29.9309130625 -27.5561229932 60.7839067938  
H -29.9020093006 -27.5894985883 59.7627267221  
H -30.1124696941 -26.5850927476 60.8953257199  
O -20.7505697464 -32.7158298173 57.7516631306  
H -20.2172567324 -32.1749460720 58.3577436686  
H -20.0117601124 -33.2495494897 57.3641782014  
O -25.1408641554 -25.7252986184 61.9615696245  
H -25.9114235157 -25.2817157823 62.2013764512  
H -25.0025440930 -25.7815376170 61.0193913345  
O -24.4944588865 -18.5829857592 56.4033500481  
H -23.8713337978 -19.2766060797 56.0277914264  
H -27.8452608978 -32.8179258443 55.9793658155  
O -14.7394606527 -18.9439943778 56.9310691430  
H -28.8424404321 -19.6968718940 57.5239426961  
H -14.7463389507 -19.2718411139 56.0075407164  
O -22.6123761303 -28.1407918724 58.8512046453  
H -21.6773775181 -28.1570757436 58.7258583534  
H -22.8706018832 -29.0664190306 59.0664384761  
O -18.0238353949 -29.2244299789 57.4940068639  
H -18.9049441432 -28.8113419414 57.5636436928  
H -18.1600205154 -29.9878401697 56.9676484887  
O -17.5449421571 -17.3456678082 52.4539813449  
H -18.3148996169 -17.0705474011 53.0848750057  
H -17.0816525260 -17.9769906599 52.9993097528  
O -32.3525672337 -29.3946402177 60.5718746563  
H -32.4098610547 -29.0389018632 59.6815637975  
H -31.6236711075 -29.0278838041 60.9975397779  
O -29.8695199078 -24.7363224251 57.5242628654  
H -28.8755488309 -25.0452008733 57.5467547607  
H -29.9386162444 -24.0755088259 56.8255733494  
O -22.2404857835 -21.9172109152 61.4832366485  
H -22.9265476684 -21.9206275258 60.8264092721  
H -22.2803304666 -22.7935728506 61.8712818740  
O -24.3048024058 -21.2560759551 59.9902070297  
H -24.0118859638 -20.3889466875 59.6468254254  
H -24.6553824845 -21.8012668773 59.2725474810  
O -32.9482491967 -33.5406146701 61.4522602660  
H -33.3536159197 -32.7063355940 60.9618408978  
H -32.0024147115 -33.5278673247 61.2057298834  
O -22.2382496695 -30.7554117662 56.2392632675  
H -21.5080939507 -30.1483005097 56.0511637873  
H -21.7688269878 -31.4655389631 56.6989463802  
O -29.8748022370 -28.3677023434 57.9108673290  
H -29.8152206757 -29.1901492321 58.4092909304  
H -30.8842339371 -28.5095874282 57.7653503694  
O -23.6175185787 -30.7611467905 59.2020301865  
H -24.3525554157 -30.3886544816 59.6537090660  
H -23.9546775869 -31.5365052258 58.7313012320  
O -20.5517687740 -29.1415482607 55.4137066553  
H -20.5248947862 -29.6188479533 54.5372431199  
H -21.2753871716 -28.5065547912 55.2144812909  
O -22.4427219986 -27.3057030038 54.7236617111  
H -23.2950977687 -27.5184128930 54.9809978085  
H -22.4953052801 -26.9497269463 53.7737193149  
O -29.9007797861 -26.4549947514 55.0516751876  
H -15.7092952998 -25.8214236714 54.3192878498  
H -29.9605531556 -26.0382314396 55.9334215169  
O -26.9022614948 -28.9135790170 57.0011862258  
H -25.9234903112 -28.8531712823 57.1439817461  
H -27.3254001521 -28.7729774106 57.8408302885  
O -30.3362013247 -30.9906811502 58.8759377259  
H -30.8911831567 -31.1868084599 59.6610729605  
H -30.8528081910 -31.0866356075 58.0973659626  
O -22.6439897227 -33.9909444329 61.8567141696  
H -21.9308510273 -34.5503454512 62.3995612652  
H -22.5132206953 -34.2661494815 60.8647495491  
O -24.9888820458 -25.8280809933 56.5058042331  
H -25.7724880914 -25.7086363687 57.0977172782  
H -25.3985807004 -26.4793691353 55.9893711070  
O -27.9283897691 -23.6732594548 60.2925269177  
H -28.8709214927 -23.9696781858 60.2674736677  
H -28.0090795205 -23.1119913642 59.5248409114  
O -22.9678006354 -19.4270716775 54.4255040244  
H -22.3892300538 -20.1624681212 54.5537318403  
H -22.3950052283 -18.7339002868 54.0873251717  
O -19.0742315397 -22.5093649329 58.1004075712  
H -19.8876213705 -22.1692438849 57.7967269636  
H -18.3372263527 -22.1542474826 57.5341881146  
O -27.3491356653 -26.9965527591 55.0351864672  
H -28.3447789558 -26.8414619274 55.0812108081  
H -27.2528665149 -27.4709050793 55.8492169837  
O -25.5910166135 -29.9338641689 60.7551715966  
H -26.1915120367 -30.7252989494 60.8581860779  
H -25.3163913997 -29.5288278956 61.5960162943  
O -26.8226766718 -18.8165328191 54.6382565428  
H -27.0088377706 -18.2423533855 53.8766537539  
H -25.8769522216 -18.7422227490 54.8615746491  
O -26.9093904850 -31.4422327587 55.7653326197  
H -26.8261333048 -31.0121817328 54.8527699926  
H -27.0945771250 -30.6974891084 56.3695721840  
O -27.0572315841 -25.5694382786 58.6269260311  
H -27.0326117597 -26.5175692164 58.9454945124  
H -27.4491285401 -25.0222724943 59.3560316333  
O -24.4383422697 -32.8092819971 56.9453166781  
H -24.9718421445 -33.3209735296 57.5670855131  
H -24.9815346207 -32.1333650294 56.5493472617  
O -21.4295383229 -24.4245377156 59.2432519875  
H -21.0812485022 -25.0629828814 58.6198022635  
H -20.6623860840 -24.1483607979 59.7626466798  
O -27.8768208590 -22.6737411499 56.9928618233  
H -27.8300890033 -22.1898533051 56.1371292519  
H -26.9600278682 -22.9014603623 57.2950216266  
O -21.7666377195 -22.2402100167 57.6263168387  
H -21.6756016445 -22.9104528004 58.2907482367  
H -21.8818364997 -21.3670016309 58.0333320970  
O -34.9957726970 -35.0667904958 63.2396055396  
H -34.2023270660 -34.6022229637 62.9499323401  
H -34.7166596157 -35.9631764945 63.3615100112  
O -25.3171292702 -34.3454927162 62.1400640249  
H -25.4218418057 -35.2761983024 62.0151979870  
H -24.3758048997 -34.1956457379 62.0918785410  
O -23.9724356798 -25.8657172428 59.5527756853  
H -23.5805619628 -26.7574794123 59.4035767785  
H -23.2160401500 -25.3090650967 59.3145697053  
O -18.6734814706 -27.1010285693 54.9003951801  
H -19.1260185814 -27.9431157167 55.3019675598  
H -17.7707078947 -27.2797947004 55.1444442504  
O -31.8096417909 -31.6590813078 56.5811240675  
H -31.2944594861 -31.9533840842 55.7967092139  
H -32.1525750829 -32.5022250959 56.9285878307  
O -25.4941215570 -22.9913365297 58.2644943518  
H -24.8682159860 -23.0705908578 57.5395509508  
H -25.4865839596 -23.9300764448 58.4495522234  
O -15.8690338072 -19.0743604006 54.2981566742  
H -15.2137153534 -18.4853823895 54.0312955393  
H -16.1013149485 -19.5750941853 53.5072583917  
O -29.3152013196 -29.1852751954 54.7132562079  
H -28.8648321127 -28.9354610499 55.5418544288  
H -29.6779665115 -28.3854267453 54.2950350232  
O -25.0516652112 -34.8927248877 59.0453073004  
H -25.3198658799 -35.0875457255 59.9663544148  
H -20.2744795762 -19.9217770901 58.9248435908  
O -25.0186001142 -28.2072342789 62.9562556843  
H -25.3873975751 -28.1584895908 63.8506487021  
H -24.9507813673 -27.3347300637 62.5401956425  
O -28.5375524421 -20.7549111757 58.6017927388  
H -28.2180314114 -21.4898248366 58.0036363918  
H -27.8074803745 -20.3354641416 59.0474684434  
O -18.7733688202 -20.0539675193 55.0054907621  
H -19.6743771503 -20.4773490518 54.7904970583  
H -19.0649517567 -19.4273722320 55.6787268165  
O -30.4209294250 -24.9295082436 60.1448488151  
H -31.0334700665 -24.2684840731 60.6634430841  
H -30.5211866442 -24.9816646830 59.1755361746  
O -26.6960394559 -32.2669744246 60.9510351830  
H -27.3014969557 -32.6702980159 60.3177402522  
H -26.3048810543 -32.9632586441 61.5433484398  
O -23.2418533286 -31.7289005716 54.0044813581  
H -22.9064884241 -31.6840600275 54.9135221226  
H -23.2805975258 -30.7698326671 53.7421826361  
O -22.3052645722 -34.7916101993 58.9962413509  
H -17.8144480250 -20.3671615811 59.2417311832  
H -21.8873231121 -34.1195941435 58.3418952868  

