&CONTROL
   calculation      = 'scf'
   tprnfor          = .true.
   outdir           = './'
   disk_io          = 'none'
   pseudo_dir       = '/scratch/zhouwq/DFT-feldspar-surface/script-dft'
/
&SYSTEM
   tot_charge       = 0
   ecutwfc          = 110
   input_dft        = 'SCAN'
   ntyp             = 5
   nat              = 493
   ibrav            = 0
/
&ELECTRONS
   electron_maxstep = 25
   mixing_beta      = 0.5
/
&IONS
/
&CELL
/
&FCP
/
&RISM
/
ATOMIC_SPECIES
K 39.0983 K_ONCV_PBE_sr.upf
Al 26.9815385 Al_ONCV_PBE_sr.upf
Si 28.085 Si_ONCV_PBE_sr.upf
O 15.999 O_ONCV_PBE_sr.upf
H 1.008 H_ONCV_PBE_sr.upf

K_POINTS gamma

CELL_PARAMETERS angstrom
14.38000000000000 0.00000000000000 0.00000000000000
3.79226300000000 15.03099300000000 0.00000000000000
-16.02692595000000 -16.61449229999999 28.01481620000001

ATOMIC_POSITIONS angstrom
K -13.6104322832 -12.7833597977 39.6379233144  
Al -17.1590741133 -23.6432771662 40.2688169752  
Si -15.3672786827 -12.0468625027 42.6456740239  
Si -21.1754081759 -23.6633945803 40.3189234750  
Si -17.4451929153 -11.6810476350 40.3242863113  
Si -19.1111688866 -23.9768899909 42.7045051380  
Si -14.1321538107 -10.0225078579 37.7240311139  
Si -19.2088500505 -21.7457385497 38.7865930712  
O -22.7269702425 -23.4365890373 40.5156675271  
O -17.5540563008 -12.6243060569 39.0079101192  
O -18.7852151912 -11.8172257598 41.2458937219  
O -17.8014390786 -23.6687991210 41.9110455009  
O -13.3382184698 -8.8755279679 36.8900700568  
O -20.4871684983 -22.6175037735 39.3568946867  
O -19.2911871378 -21.9737515887 37.1851861349  
O -13.7744633681 -10.0950427033 39.3572148561  
O -19.2156096718 -25.5671992192 43.2683233246  
O -17.1881680600 -10.1968251304 39.7451800393  
O -15.7371799223 -9.8883936361 37.5223244373  
O -17.8789048747 -22.2622303920 39.4900851272  
O -16.0166309480 -12.0169271077 41.1507233892  
O -20.4409358743 -23.6688293166 41.8073906809  
Al -15.2284349597 -16.0434267251 40.1277023439  
Si -17.3144266325 -14.1870787997 38.6900620188  
Si -16.1356642572 -17.8525348723 37.6351841254  
O -20.8230385954 -15.7447170766 40.4132133421  
O -13.6199215974 -11.4685720577 37.1827048226  
O -16.2496189637 -19.5546970226 37.6242983683  
O -18.6988725971 -15.0647147417 39.2055346369  
O -15.1024434644 -17.4634219558 36.3276125899  
O -15.5634505834 -17.4595951582 39.0726643658  
O -17.2018330183 -14.1712623229 37.0591194620  
O -16.0519854639 -14.6408964785 39.5399515000  
O -17.6488142704 -17.3442635685 37.2429766986  
O -26.5065274237 -28.0401508341 52.7877578693  
Al -22.9146765597 -15.9783544861 49.6340899885  
Si -20.7948020431 -17.7741601598 51.0935818702  
Si -25.9711000590 -29.5062226475 52.2227390477  
O -17.4446193764 -16.2010666630 49.3146410415  
O -24.7449928962 -20.4553420132 52.6575289952  
O -19.5662075584 -16.8657911532 50.6248539740  
O -26.3385455256 -30.8031137039 53.2619286441  
O -26.7537577745 -29.7126315512 50.8285617090  
O -20.9068515705 -17.6751750871 52.7510184389  
O -22.1940546947 -17.3766740359 50.3670376227  
O -24.2560387530 -29.5295377832 52.2762073255  
K -24.4356141212 -19.0471058279 50.3232544671  
K -19.0635382897 -24.5026978978 46.2630271340  
K -26.5364888141 -26.5943910918 50.8516139006  
Al -24.7572960757 -23.4975283983 49.5043413684  
Si -22.7891667650 -20.0500170528 47.2437858280  
Si -20.7056274305 -23.4273244897 49.2879069026  
Si -20.5498364365 -20.3534527303 49.3981251938  
Si -22.8279942263 -22.9782241538 47.0627300730  
Si -24.1604390122 -21.9660732499 52.1107598253  
Si -22.7180713489 -25.2442862658 50.9961703522  
O -19.2581423624 -24.0761703644 49.1812104741  
O -20.3605825110 -19.3033068881 50.6876071623  
O -22.4125144285 -26.8034542952 50.6515881129  
O -22.8609572188 -23.9818882978 45.8520097592  
O -19.3032386888 -20.1238120280 48.4279320876  
O -24.1342931669 -23.0559689089 47.9845776107  
O -24.6374657820 -23.2781518262 53.0615826871  
O -21.5154887710 -24.3740715691 50.3064455773  
O -22.7007857874 -25.1937237105 52.6315952796  
O -24.4508930429 -22.1214955156 50.6030024174  
O -22.6145907948 -21.4506648474 46.4476047516  
O -20.6555268441 -21.8906582952 49.9513777926  
O -22.5213481948 -22.0191071618 52.5193759301  
O -24.0550054381 -24.8145226539 50.2091941440  
O -21.9903829316 -20.1493659184 48.6602949774  
O -21.4540970530 -23.4548982379 47.8739591079  
K -17.2381847924 -16.5347524459 46.5499788942  
Al -19.3989828373 -12.0433727386 42.8647498866  
Al -20.7890698491 -27.5531520077 46.8833552070  
Si -18.9162196809 -15.8601047501 49.5454831270  
Si -24.7545144113 -27.4667010662 47.2952530475  
Si -20.8838906447 -15.4303808961 47.2160911811  
Si -22.7510456519 -27.8884078000 49.4892133676  
Si -17.3252028517 -13.9107356508 44.2258697423  
Si -22.7393925284 -25.6140250922 45.5989159054  
O -13.8341265125 -12.4083020801 42.3957818634  
O -26.3137731477 -27.1060754548 47.2958933862  
O -21.1062301420 -16.3433894781 45.8746617392  
O -22.1627957985 -15.4168462087 48.1856439487  
O -21.5809449587 -27.8615339638 48.4184070501  
O -16.0457416491 -13.1764116889 43.5592772014  
O -23.8606488445 -26.3517027977 46.5081167546  
O -23.0307271488 -25.7954343010 44.0777914281  
O -17.2676620665 -13.9031653015 45.8700192839  
O -22.9014400013 -29.3874174504 50.1433193047  
O -20.6397946397 -13.9234552311 46.6534736295  
O -18.7347956571 -13.5345583751 43.5603977940  
O -21.2021194932 -26.0706434025 45.9942449832  
O -19.5845243396 -15.9321167516 48.0695025249  
O -24.1861136789 -27.5344415102 48.8599205534  
K -21.0423933635 -15.1861899445 43.2499936305  
K -15.3167337955 -20.6197641625 39.7952064968  
K -22.7254750900 -22.7495814843 43.3180296127  
Al -18.7381023571 -19.8743470181 46.8559807295  
Al -21.2964521964 -19.3715687339 42.8627488283  
Si -19.2749034742 -16.2282123062 40.2327979258  
Si -17.2277724941 -19.5357830850 42.5869229523  
Si -17.2578666721 -16.5701871101 42.5516242838  
Si -19.1459641646 -19.1647459658 40.3478187569  
Si -20.8404579110 -18.0178816499 45.5652180836  
Si -19.2715203826 -21.3186513530 44.2940658092  
O -24.3155200221 -19.8042174766 47.4989607824  
O -15.6893994793 -19.9636612099 42.6802523114  
O -17.1257816856 -15.5042585831 43.8036464410  
O -19.1997096975 -22.9926953951 44.0454543260  
O -19.4905862534 -20.1847513862 39.1417408983  
O -15.9074899155 -16.5226791951 41.7161424224  
O -20.3328694663 -19.1766091167 41.3906102582  
O -22.1291209187 -18.8314109800 46.3165754541  
O -18.0728930394 -20.6130555214 43.4200835860  
O -18.9322715286 -21.2369790442 45.8876285969  
O -21.0196488808 -17.9927322544 43.9287526059  
O -18.9558237735 -17.6978399950 39.6148711228  
O -17.3968137454 -18.0664729341 43.1942841675  
O -19.3715654234 -18.4366823396 46.0989403534  
O -20.7500357446 -20.6458681398 43.9348358231  
O -18.5761532339 -16.1146563860 41.6779622301  
O -17.6780043727 -19.4822504228 40.9847155926  
H -24.4617728586 -20.3613155193 53.6260412124  
H -27.2105219621 -31.1616561245 53.2584067815  
H -21.6486401082 -17.0279890628 53.0148379652  
H -23.5627026715 -29.3986771809 51.5495029933  
H -26.9088901132 -28.1093464461 53.6479728113  
H -25.5374001972 -23.7616372080 53.0453340937  
H -23.3268660928 -24.5149057052 53.0576606128  
H -21.8515916587 -22.2202332722 51.8222872608  
H -13.4532095201 -7.9243163939 36.8792643420  
H -15.6622460780 -7.8297906709 36.8328397894  
H -16.2023918646 -9.9138882083 38.3737347228  
H -12.8942342880 -11.6126269588 36.5347621451  
H -16.2793782355 -19.9309501981 36.7075735399  
H -14.2375404102 -17.1344280003 36.5783051737  
H -17.4501240214 -14.9926135029 36.6460209866  
H -18.3597973819 -17.0593868580 37.8652257876  
K -6.4083377041 -12.9486888357 39.6375231027  
Al -10.0637075249 -23.7324693693 40.3262073273  
Si -8.1549678648 -12.0513416697 42.6613623210  
Si -14.0513195030 -23.7328000544 40.3812764517  
Si -10.0560878000 -11.6367145977 40.3691100172  
Si -12.1136238150 -24.1446749918 42.7620555747  
Si -6.7242864758 -10.1422529240 37.6610377986  
Si -12.0215752824 -21.8401906516 38.7632207103  
O -15.5168093066 -23.1934252236 40.6101174789  
O -10.2894943019 -12.6989406135 39.2343498764  
O -11.1898365887 -11.7556435858 41.4822587283  
O -10.7939808100 -24.0428792842 41.8329241848  
O -5.9699000646 -8.9474867793 36.8021835763  
O -13.3547314206 -22.5769908136 39.4513446385  
O -12.1473023776 -22.0276234740 37.1678169489  
O -6.4436063567 -10.0716181191 39.2719697725  
O -12.2266470950 -25.6311865166 43.3873462723  
O -10.1178923227 -10.1716616360 39.6757833374  
O -8.3457417454 -9.9240714053 37.4305158825  
O -10.6976605294 -22.3629974368 39.5205812557  
O -8.6121140170 -11.8575389407 41.0409053097  
O -13.4730895157 -23.8018624535 41.8913550872  
Al -8.1221150079 -16.2508217775 40.0886416859  
Si -10.0582532502 -14.2163138083 38.8044425113  
Si -9.0037502150 -17.8006596984 37.6168544314  
O -13.5654115750 -15.6587689476 40.3762337848  
O -6.3209838942 -11.6562783962 37.1330785768  
O -8.8018590856 -19.3848494990 37.1329184921  
O -11.2381632106 -15.0915985707 39.6117494718  
O -8.3836190778 -16.9341611924 36.4195812293  
O -8.3013881618 -17.6826986514 39.1080430765  
O -10.3438253364 -14.3351872648 37.1987132890  
O -8.6400475251 -14.7179507863 39.2799740057  
O -10.5393210652 -17.3347922412 37.5131996114  
O -19.1406091914 -27.8209095413 52.8216958181  
Al -15.7806484100 -15.9056961411 49.7520723859  
Si -13.6028157363 -17.7961246984 50.9798417165  
Si -18.8008152388 -29.4456396780 52.3413617838  
O -24.5861441029 -16.2653807727 49.0837189137  
O -17.8418212549 -20.6427682900 52.6764189855  
O -12.3244492413 -17.0806965817 50.3026835877  
O -19.3657660560 -30.5486330570 53.3804713378  
O -19.3596071668 -29.5203812345 50.8087912530  
O -13.3614478483 -17.6957288783 52.6155868132  
O -15.0179882373 -17.2578868365 50.5640218017  
O -17.1469330761 -29.7771956737 52.5110515276  
K -17.5168490636 -18.9193764365 50.3583130085  
K -12.0609728782 -24.3826324268 46.3258603646  
K -19.2531302589 -26.6008889241 50.3294177266  
Al -17.6757968273 -23.4873085202 49.6506587513  
Si -15.5942762031 -20.1249327047 47.1491757916  
Si -13.7171718677 -23.3636588147 49.5988713625  
Si -13.6086337637 -20.4499266784 49.4215775971  
Si -15.7132098922 -23.1153007352 47.1885566189  
Si -17.0890254120 -21.9648321846 52.2005673218  
Si -15.8340483969 -25.4066041494 51.1287204540  
O -26.5435811745 -23.7967153448 49.4135733639  
O -13.4587074632 -19.3202672271 50.6154089789  
O -15.4234409538 -26.9372838310 50.7526015359  
O -15.9282358510 -24.1053022614 45.9039572327  
O -12.4522272188 -20.3816875179 48.4068009120  
O -16.9926480952 -23.1200276522 48.1008791191  
O -17.4035982640 -23.1771378315 53.2466405587  
O -14.5900094443 -24.4613464187 50.4817382844  
O -15.8040133195 -25.2281225276 52.7174006595  
O -17.2877766285 -22.1267346221 50.6290962176  
O -15.4909448657 -21.6117377364 46.4299153962  
O -13.8422998568 -21.8773594488 50.2354480289  
O -15.4598451937 -21.7460726638 52.4233251317  
O -17.1969734117 -24.9981549786 50.4040171800  
O -15.0582066025 -20.2476161127 48.7228080387  
O -14.2917966544 -23.3341183474 48.0559753708  
K -9.9747352752 -16.7241195975 46.3862122830  
Al -12.1603888383 -12.1708065504 42.9391892554  
Al -13.5583511102 -27.5312853426 46.9509909776  
Si -11.7396955223 -15.8694626845 49.3382535295  
Si -17.6228731525 -27.5800926049 47.2888496609  
Si -13.8920696731 -15.4782190218 47.1819931477  
Si -15.5371635863 -27.9409915249 49.4567962232  
Si -10.2113283083 -14.0357600956 44.2389166424  
Si -15.6668205201 -25.7298859785 45.5957942545  
O -21.0590867329 -12.5710221747 42.6901775605  
O -19.1316076171 -27.1614893177 47.4619812251  
O -14.1508315630 -16.5393335111 46.0123345502  
O -15.1628676733 -15.3877501233 48.2191816858  
O -14.2893300859 -27.8387069260 48.5347886008  
O -9.0438316632 -13.2301136458 43.4599446674  
O -16.8995933220 -26.4869242191 46.2846385637  
O -15.8745640852 -25.8391404401 44.0186401447  
O -10.1049642280 -13.8635768789 45.8195125724  
O -15.6971080706 -29.4842448676 50.1015372074  
O -13.6520043590 -13.9948585927 46.5291678879  
O -11.5775467554 -13.6316748799 43.5705631702  
O -14.1936183345 -26.1179630703 46.0708454949  
O -12.4833695201 -15.7735041812 47.9149407818  
O -16.9492177881 -27.5784906660 48.7232882927  
K -13.8866843430 -15.3847513962 43.3629333610  
K -8.0508879292 -20.5631981906 39.6148711228  
K -15.5216523696 -22.5167891680 43.5369453908  
Al -11.5557518601 -19.9974823868 46.9567540255  
Al -14.0658978265 -19.4688881936 42.8994882587  
Si -12.0778576875 -16.2401753768 40.3699104405  
Si -10.0330302888 -19.6149851601 42.5485826752  
Si -10.1639115848 -16.6390150811 42.6432727540  
Si -12.1393030563 -19.1807404083 40.3109192418  
Si -13.6415428745 -18.1085036498 45.6198869964  
Si -11.9318809432 -21.5255909975 44.1920918782  
O -17.0718302671 -19.5008783113 47.0976285298  
O -22.8734459517 -19.9071437498 42.3851362333  
O -10.0538657838 -15.6430073797 43.9255509126  
O -11.9534676996 -23.1511133892 43.9945474028  
O -12.1430770352 -20.2221338817 39.0820293186  
O -8.9498203020 -16.5011397739 41.5784696114  
O -13.4665642732 -19.2991942695 41.2936789941  
O -14.5966069620 -19.1211318372 46.4035814690  
O -10.6530469212 -20.9484738721 43.3204308827  
O -11.6703736983 -21.2667363492 45.7822128457  
O -13.7262770583 -18.1589630192 44.0457744953  
O -12.1554732165 -17.7030835086 39.6851482903  
O -10.2283405449 -18.1197870365 43.3481255296  
O -12.1976116250 -18.4436073746 46.2987260141  
O -13.2112715313 -20.8852972908 43.4980448174  
O -11.5800674815 -16.4061470646 41.9222514273  
O -10.7429101107 -19.4843097470 41.1239092080  
H -18.4820040446 -20.7708342103 53.3871148514  
H -20.1376048560 -31.1334317889 53.0760703492  
H -13.4126825514 -16.7373692729 52.7679874133  
H -16.6920910835 -29.7860246191 51.6666849673  
H -18.5201305622 -27.6133379978 53.4606737545  
H -18.3306716839 -23.5167869695 53.4382619015  
H -16.3920305936 -24.4893625272 53.0923989849  
H -14.9014264706 -21.9649245059 51.6626028084  
H -6.5786640278 -8.2582900810 36.6054395242  
H -8.8685429075 -7.7828857319 36.9803578073  
H -8.9918405861 -10.0623446989 38.1528979288  
H -5.7190350587 -11.6336050438 36.4050135249  
H -8.9148160978 -19.6357458020 36.2339630614  
H -7.4283195118 -16.8896328789 36.2437282259  
H -10.4103091292 -15.2948527466 37.0067717769  
H -11.1810598059 -17.5433981370 38.2230150116  
O -23.3261545430 -32.9187683090 61.6426009315  
H -23.0140907516 -33.8133221892 61.5084499831  
H -22.9040942654 -32.4450241515 60.8586663319  
O -28.4114757264 -29.3988548055 58.8440808778  
H -29.0558470943 -30.0155434059 59.2777502326  
H -27.8107319024 -29.1128054036 59.5635013578  
O -21.1491749169 -26.9747745634 60.3315875757  
H -20.2478200516 -26.9589012512 59.9236118095  
H -21.1781428661 -27.6595807734 61.0298768800  
O -23.0961590689 -34.4918457457 59.0474684434  
H -18.5483954315 -19.7066246208 58.5204697295  
H -23.5905633973 -33.8507405815 58.4612384038  
O -22.5544043674 -27.5139748092 58.0749541096  
H -21.8764657300 -27.3042952928 58.7381048302  
H -22.0905370152 -27.8143369973 57.2721295196  
O -30.5699862000 -23.7991723628 60.7535707500  
H -31.5336580058 -23.7720835703 60.6380696649  
H -30.4659044690 -23.1090916831 61.4092775337  
O -22.0865969197 -24.3879054265 61.4049552478  
H -22.6574516105 -24.0302302511 60.6822530322  
H -21.8715675348 -25.2672970816 61.1352926313  
O -20.0840318344 -23.9335497837 53.5941043219  
H -20.0313239072 -24.2910287305 54.5394843052  
H -20.7794218236 -24.5130532652 53.1850880054  
O -20.0404297032 -25.0782240900 56.1229617591  
H -20.9714653504 -24.8100787484 56.5109269423  
H -20.1168651131 -26.0419986959 55.9337416863  
O -22.3754091705 -24.1145350918 56.9173819042  
H -22.3997157308 -23.9187877842 57.8568387549  
H -23.1119412794 -24.6980307488 56.7374467419  
O -28.5449710328 -23.0368734813 58.8351961789  
H -29.3491291573 -23.3023432203 59.3562717603  
H -28.5624654276 -23.4650943257 57.9697784853  
O -28.6308208799 -21.8033542515 54.9681910353  
H -14.6560561200 -21.8397605934 54.1022130454  
H -27.7241789216 -21.4649671002 54.9866007717  
O -29.8816866830 -33.7407138556 59.6880472264  
H -30.1478738859 -32.8297040307 59.5950380366  
H -30.5926731964 -34.2852979256 59.2317258917  
O -19.8959460433 -31.5025219207 60.2822014568  
H -19.5816589303 -31.2947956756 61.1351325466  
H -20.8061382137 -31.1873366785 60.2745974353  
O -21.9377150009 -22.0182271409 55.3140539519  
H -22.0526126746 -22.8197754294 55.8644250268  
H -21.9662522293 -22.3156454842 54.3878040860  
O -17.1861309221 -21.8557674223 56.6202647678  
H -16.4733503879 -22.1870188064 56.0862223287  
H -17.9195277068 -21.4689135317 56.0265107491  
O -31.1354828281 -34.7637670682 61.9464416238  
H -31.0246098802 -35.7232716396 62.1944928106  
H -30.3932603177 -34.5177875610 61.3862253421  
O -21.7593371581 -31.3982469993 63.3204482949  
H -22.4670714100 -31.9246085107 62.9223177355  
H -21.9719170805 -31.4202843063 64.2204442759  
O -24.2922344159 -30.1949315686 56.4673839137  
H -24.4399551389 -31.1596442777 56.7733857489  
H -24.2978193143 -29.7148758162 57.2611637202  
O -19.5680295766 -23.3853039583 60.5924455357  
H -19.7436429173 -23.1033933644 59.6564305053  
H -20.4548944016 -23.8320763327 60.8811582272  
O -32.2019584457 -29.5426142225 61.0919897297  
H -32.7140940523 -29.2904450769 60.2732367156  
H -31.7088351544 -28.7493237272 61.3030613592  
O -18.1019718446 -31.0963227751 58.2195906035  
H -18.7746432708 -31.1960616305 58.8449613434  
H -32.3944417530 -31.9813693624 57.8321056743  
O -26.3419964278 -26.3997462115 59.8779876802  
H -26.6876956964 -25.6411971135 60.3989832192  
H -26.9918440957 -26.5279167770 59.2013098055  
O -24.9921264036 -21.5851806008 57.7272502194  
H -24.4822672245 -21.0962488675 58.4397870589  
H -24.5057398516 -21.1932648924 56.9888597067  
O -17.9667616815 -33.2964935441 56.6261879004  
H -28.2554285296 -19.1159886508 56.9860582251  
H -14.7597334068 -18.6240738944 55.9334215169  
O -24.5124509273 -25.7546921580 56.8922486120  
H -24.0349456161 -26.5412748050 57.1780797795  
H -25.2571560491 -25.8886186137 56.1942794769  
O -19.6840786328 -30.4999575901 56.1860351167  
H -19.4153890625 -30.7136858093 55.2269678947  
H -18.9033128576 -30.7020551978 56.7612193145  
O -17.5587728555 -17.2659514971 53.0591013748  
H -17.0201673173 -17.8315069734 53.6117936773  
H -22.0150805092 -31.6991674607 53.5419167214  
O -21.2023226619 -29.2176632982 62.0750696513  
H -20.2462585211 -29.2257932566 62.2248288545  
H -21.4693331434 -29.8625981537 62.7290155037  
O -16.4577685411 -25.6028797454 56.6822175328  
H -16.9062022871 -26.0849067320 56.0044190654  
H -17.1398342408 -25.2064612467 57.2195417075  
O -27.7373004713 -37.1712046240 63.0409404715  
H -28.6607744520 -37.1562713790 63.2361637193  
H -23.7159573760 -23.1063501194 62.9133529943  
O -30.6997412010 -37.2462026138 62.9954764270  
H -26.7835747017 -22.8154639399 62.2242685581  
H -27.6831592135 -22.6338081681 63.4124969767  
O -33.3629467773 -34.3917215145 60.3859363191  
H -33.6618344779 -33.5004223512 60.2268922054  
H -32.5515357589 -34.3750211348 60.9291035841  
O -20.0688225293 -18.5205997267 55.2111195130  
H -23.2268148286 -32.8749919656 55.4566093452  
H -20.4567624469 -18.3656436976 54.3015184521  
O -18.6210563515 -26.2370692621 59.7475186791  
H -18.5215600564 -25.3317228182 59.3593133689  
H -17.7068170098 -26.4869478591 59.9753991983  
O -21.5098929777 -32.3585227369 57.2058544687  
H -21.0111622696 -33.1507685040 57.5104955843  
H -20.9503074256 -31.6611206401 56.7672224894  
O -20.3843797231 -28.0432024662 56.1637833484  
H -20.1520582918 -28.9886477473 56.4339262189  
H -21.0726075479 -28.2298995234 55.4819027221  
O -21.8660041728 -27.4021746719 54.0272934227  
H -22.0466491157 -28.2190789129 53.5768151782  
H -22.3754780174 -26.7091667331 53.6652619551  
O -27.1384019333 -24.5628360408 52.9644112961  
H -27.9580620084 -24.1230965075 52.9145449232  
H -27.0847803039 -24.8519621404 53.8969044639  
O -27.1615490781 -30.5369403099 56.9454767627  
H -26.2205869635 -30.3064380610 56.7135941269  
H -27.3114098667 -30.0452147060 57.7679117240  
O -30.2263024473 -31.1090672582 59.7101389100  
H -30.4777709571 -30.8096948138 60.6004497689  
H -31.0893675800 -31.1379704290 59.1978679852  
O -23.1259851078 -35.7631032091 61.5618382185  
H -19.1776521026 -21.6498252046 61.3936692790  
H -23.2826329555 -35.4482316753 60.6320664900  
O -26.7131678263 -25.6347043328 55.3420687681  
H -27.2018243674 -25.1431543376 56.0094617323  
H -27.2171515251 -26.4854954444 55.2501801710  
O -33.0393182398 -37.8357952525 63.9667100835  
H -33.2128279825 -37.2132720190 63.2952349603  
H -32.6443445442 -37.5402747512 64.7887448331  
O -24.0539798004 -20.4089795953 55.2761138866  
H -23.1046113124 -20.7062064400 55.3455906307  
H -24.1186885140 -19.5638359656 55.7586090638  
O -18.4247795027 -23.9569916085 57.9209526628  
H -19.0627981586 -24.3450125990 57.2648456674  
H -17.9970657161 -23.1718354945 57.4154052939  
O -27.7413448789 -28.1221260292 55.2136008253  
H -28.7212665531 -28.4294293640 55.1496470020  
H -27.2928756053 -28.7089451918 55.8430537241  
O -24.7579571261 -29.5156819935 59.1530442793  
H -25.3155555678 -29.6041051773 59.9394601912  
H -24.1585235514 -28.7361709287 59.2774300632  
O -24.7803071529 -17.1854732214 53.6957580835  
H -28.8062991009 -32.0018664465 54.6067999064  
H -25.6386405453 -17.6780918437 53.5062178414  
O -27.9823421076 -33.2015426815 57.0489714980  
H -27.8649046987 -33.5468325365 57.9070252971  
H -27.5120976884 -32.3472693411 57.1042807494  
O -28.5920790109 -26.5893629270 58.1925362953  
H -28.5182692985 -27.6089336990 58.0276490914  
H -29.3728187667 -26.2949834134 57.6449667021  
O -22.3917829463 -31.4117581680 59.5197182022  
H -22.0603338435 -31.7662968057 58.6654263928  
H -23.2303431324 -30.9526375286 59.4048574558  
O -21.4638246424 -21.9051282679 58.5248720578  
H -20.7958504256 -21.2346230741 58.5014996968  
H -21.7091607354 -21.7237743606 59.4823384332  
O -28.7784132395 -24.1625743999 56.4932375869  
H -28.8016190220 -23.4541059840 55.8408925811  
H -29.5876994676 -24.6793660801 56.3908634443  
O -27.5674057306 -34.7965674998 59.1492022474  
H -27.0713384338 -35.1984840631 59.9052821154  
H -28.3886765596 -34.3889648797 59.4503215004  
O -34.2324663176 -36.3753509189 61.9743763976  
H -34.0250368817 -35.6621796216 61.3512468430  
H -35.2277675051 -36.2001091896 62.0403312792  
O -26.1827649845 -36.1427281997 61.0515683520  
H -22.9445136332 -21.5865452336 61.7312878354  
H -25.2822383475 -36.0066349983 61.3959104643  
O -24.3206880211 -23.8578295715 59.2743084123  
H -24.4278272059 -23.3330399478 58.4169749942  
H -24.3850293720 -24.7809089123 58.9983224515  
O -17.7126052413 -27.4854225337 55.2108793860  
H -17.0838625759 -28.1909469413 55.3409481755  
H -18.5543399109 -27.6654717655 55.6768058005  
O -30.3062534950 -31.6815507988 56.1457738237  
H -29.7627940242 -31.9210158163 56.9178621582  
H -31.0697409175 -32.3398879803 56.1015104141  
O -26.6913947268 -23.7675883995 60.7215538172  
H -27.3385488454 -23.6372730032 60.0029337605  
H -25.8092273577 -23.7104292166 60.3547198096  
O -15.2629190963 -18.7669859545 54.1749715252  
H -14.4948081296 -18.3605503252 53.7463448374  
H -15.5766031925 -19.4808871983 53.6137947356  
O -29.9902810976 -29.2614084442 54.8955125979  
H -30.1952947750 -29.4382236216 53.9517334613  
H -30.1101893000 -30.0951093516 55.3887334477  
O -24.7899491512 -32.7655497773 57.5326673103  
H -24.9552717973 -32.6828315876 58.4808487752  
H -25.6370308826 -33.1255405404 57.2607635085  
O -26.3767305916 -28.8410499786 61.3205105875  
H -26.3800478651 -27.9397990937 60.8981272016  
H -26.5934180630 -28.6863081989 62.2640495971  
O -27.6075885834 -20.4815327634 58.1838917234  
H -26.8197033668 -20.9646024351 57.9015824185  
H -28.1692317961 -21.0469939998 58.7516319843  
O -19.4048350649 -20.9462347377 54.9836392054  
H -20.2746411613 -21.4870324620 55.0523955686  
H -19.7051257132 -20.0131672564 55.0781691995  
O -30.2906365379 -26.7118037922 60.6154176849  
H -30.2924859661 -25.7753762966 60.8260891028  
H -29.6693741750 -26.7917200420 59.8682225157  
O -25.8198125038 -32.5252869685 60.3706482337  
H -25.0535680783 -32.7215695399 60.9539967493  
H -26.4952698288 -33.1955107817 60.6229416642  
O -22.8081669719 -30.4341069052 54.2631781751  
H -23.0520842655 -30.2061436336 55.1726191513  
H -23.5226531242 -30.0703005629 53.7100856610  
O -16.6554763310 -19.7117073706 57.9683377234  
H -16.7033288083 -20.5483831673 57.4719952226  
H -15.9262202774 -19.8296372266 58.6525395773  

