&CONTROL
   calculation      = 'scf'
   tprnfor          = .true.
   outdir           = './'
   disk_io          = 'none'
   pseudo_dir       = '/scratch/zhouwq/DFT-feldspar-surface/script-dft'
/
&SYSTEM
   tot_charge       = 0
   ecutwfc          = 110
   input_dft        = 'SCAN'
   ntyp             = 5
   nat              = 493
   ibrav            = 0
/
&ELECTRONS
   electron_maxstep = 25
   mixing_beta      = 0.5
/
&IONS
/
&CELL
/
&FCP
/
&RISM
/
ATOMIC_SPECIES
K 39.0983 K_ONCV_PBE_sr.upf
Al 26.9815385 Al_ONCV_PBE_sr.upf
Si 28.085 Si_ONCV_PBE_sr.upf
O 15.999 O_ONCV_PBE_sr.upf
H 1.008 H_ONCV_PBE_sr.upf

K_POINTS gamma

CELL_PARAMETERS angstrom
14.38000000000000 0.00000000000000 0.00000000000000
3.79226300000000 15.03099300000000 0.00000000000000
-16.02692595000000 -16.61449229999999 28.01481620000001

ATOMIC_POSITIONS angstrom
K -13.3620619628 -13.0684443260 39.6978750211  
Al -17.0110820877 -23.7886842319 40.1190577720  
Si -15.1592080539 -12.1027392757 42.6509568179  
Si -20.9808168083 -23.8292530923 40.2335183068  
Si -17.1607155105 -11.7445658164 40.3494996459  
Si -18.9439270035 -24.2115605938 42.5982889634  
Si -13.8885841070 -10.2891369036 37.6165342621  
Si -19.0268294888 -21.8114153476 38.6624474143  
O -22.4799304359 -23.3876445573 40.4931756318  
O -17.2234365030 -12.8982873057 39.2370713157  
O -18.4088930988 -11.5889767153 41.4123017302  
O -17.5909544203 -24.0285383834 41.7455179583  
O -12.8231815179 -9.5356910562 36.6902043538  
O -20.3349621555 -22.5875156820 39.3226365686  
O -15.3970321865 -6.9410906299 36.9940450461  
O -13.6333626286 -10.1999291073 39.2742109578  
O -18.9397814452 -25.6448090153 43.3987923257  
O -17.0330844775 -10.2062103318 39.5631637763  
O -15.4225342053 -9.8044381220 37.3955373834  
O -17.7058661219 -22.4413508066 39.2569218141  
O -15.7626801181 -11.9821307779 41.1426391137  
O -20.2425827317 -23.8858687408 41.7239065286  
Al -15.1445595873 -16.3674079045 40.2993931460  
Si -17.1570299791 -14.4367255677 38.8828039543  
Si -15.6804130116 -17.7080929108 37.7801407887  
O -20.6392310295 -15.7376981650 40.4597979794  
O -13.6885894246 -11.8728771095 37.2475391115  
O -15.4584235773 -19.1673587244 37.1969523577  
O -18.5044850612 -15.1940543528 39.4352561298  
O -14.7846369948 -16.6015883389 36.9465799432  
O -15.1765064110 -17.7596427348 39.2892589162  
O -17.1770065480 -14.6262918782 37.2194442530  
O -15.8462641137 -14.9826526024 39.5656450886  
O -17.2928016921 -17.3395736463 37.7015392186  
O -26.6685970704 -27.9822819342 52.8485099993  
Al -23.0867115063 -15.8915184867 49.7119711776  
Si -21.0446572924 -17.9584989330 51.1507320953  
Si -26.3443025845 -29.4628541746 52.1689506006  
O -17.5077523658 -16.4503386960 49.3581040278  
O -24.8481903503 -20.7274678758 52.8469891950  
O -19.7327982083 -17.1998899904 50.4919036606  
O -26.8992593647 -30.5351122502 53.2267900604  
O -26.9509551405 -29.5019695898 50.6965719035  
O -20.8414673725 -17.8163758874 52.7778326202  
O -22.4486309192 -17.2334117700 50.6357397312  
O -24.6662949172 -29.8131604543 52.2387475141  
K -24.6749693882 -19.1003215562 50.3335799279  
K -19.3209066695 -24.2374805126 46.4636132180  
K -26.9441725396 -26.5574859965 50.4723733316  
Al -25.0013668765 -23.4989105629 49.7128516432  
Si -22.9933194412 -19.9681609837 47.1137970809  
Si -21.0983514228 -23.3965540910 49.3141607875  
Si -21.0084489416 -20.4730102997 49.4381463598  
Si -23.0813136562 -22.9293151978 47.1898372963  
Si -24.3049884448 -22.1605408947 52.3303159420  
Si -22.9317087904 -25.3628226346 51.0043346700  
O -19.5762654727 -23.8460240587 49.3434562810  
O -20.9581559397 -19.5082096667 50.7281085823  
O -22.6124407473 -26.9605003501 50.7002538508  
O -23.2671411544 -24.0473954015 45.9993676924  
O -19.7272245295 -20.5672052836 48.5208612351  
O -24.3010753164 -23.1443726220 48.1761189112  
O -24.8223091287 -23.3791468964 53.2387964102  
O -21.9739673904 -24.3925314424 50.2427318811  
O -22.7257789519 -25.1628670409 52.6569686988  
O -24.6963271505 -22.1639713650 50.7887006276  
O -22.9461958946 -21.4982456364 46.5460568200  
O -21.2592528751 -21.8967250215 50.0832875557  
O -22.6622671239 -22.1968851439 52.4527807099  
O -24.3652265596 -25.0012817813 50.5148758099  
O -22.2927380309 -19.9317329336 48.5565601152  
O -21.6288898002 -23.3533622002 47.8374598045  
K -17.3172675432 -16.6973339449 46.3254601530  
Al -19.2197455596 -12.0229091931 42.8296113029  
Al -20.9059990685 -27.5772642757 46.9405854744  
Si -18.9970403353 -16.0302225908 49.5160275488  
Si -24.8839029876 -27.6474546221 47.1683059089  
Si -21.0947205930 -15.5780756433 47.2206535941  
Si -22.8389611762 -28.0234239026 49.4593575778  
Si -17.2265719646 -13.9663824859 44.2542847702  
Si -22.9421880187 -25.6647303599 45.5239962827  
O -13.6528262917 -12.6228440602 42.4445276436  
O -26.4004853777 -27.0827913244 47.2337004942  
O -21.1876749061 -16.5231363185 45.9411769171  
O -22.3804916706 -15.5979512143 48.1283336390  
O -21.5728399764 -27.9583209804 48.5163788645  
O -15.9052965857 -13.1241585042 43.5611181750  
O -24.1429804873 -26.6201312456 46.1091857719  
O -22.8223890533 -25.6545584089 43.9513245435  
O -17.1524922170 -13.9040907921 45.8849872000  
O -22.9792968295 -29.5430997709 50.1277910923  
O -20.9715799225 -14.0448946724 46.5523801642  
O -18.5359229771 -13.5089821188 43.4264869726  
O -21.6121159876 -26.1136370569 46.2595853137  
O -19.7013942507 -15.9194225504 48.0150737392  
O -24.2229542596 -27.6854666599 48.6773439941  
K -20.7696231670 -15.2719215587 43.3095451256  
K -15.2954987937 -20.6155609323 39.7073200162  
K -22.6588508271 -22.5812965270 43.5342239515  
Al -18.9398192108 -20.1256371222 46.9501905542  
Al -21.1342551069 -19.6626951613 42.9105341005  
Si -19.1876947662 -16.3201884286 40.3679894246  
Si -17.1437808706 -19.6460324898 42.7123492865  
Si -17.2281801941 -16.7282504557 42.7190728424  
Si -19.1137228989 -19.3228687972 40.3639072656  
Si -20.9724692617 -18.1767088420 45.6045188687  
Si -19.1315161696 -21.6781111876 44.2761363268  
O -24.5154046964 -19.4639275298 47.3242283717  
O -15.5693142352 -19.9077749258 42.6230220440  
O -17.1107535792 -15.6169002249 43.9620502160  
O -18.9107568635 -23.2373670290 43.9831013493  
O -19.0978625487 -20.2295993171 39.0084704155  
O -15.9120209908 -16.7513828907 41.8196371577  
O -20.3863677656 -19.3920583323 41.3155305508  
O -22.3383595562 -18.9689275606 46.0330655142  
O -17.9217484669 -20.8478273343 43.5310222582  
O -19.1138185550 -21.4975638209 45.9126818469  
O -20.9466321853 -18.3039004506 44.0091151072  
O -18.8944324808 -17.7940188565 39.8100943705  
O -17.4490090261 -18.2072717589 43.4940427008  
O -19.6802466107 -18.6406318921 46.4500060216  
O -20.5371485490 -21.1642040181 43.6769394294  
O -18.5657408939 -16.2527424991 41.9430624337  
O -17.7715109079 -19.6899287714 41.1880231159  
H -24.6401213018 -20.6548885108 53.8042954857  
H -27.6297782026 -31.1149045208 53.1399441301  
H -21.1335783746 -16.9453973944 53.0595015865  
H -24.0196896139 -29.6271515925 51.5029983984  
H -27.1788746885 -27.9699426550 53.6472524304  
H -25.6697564125 -23.7623701019 53.2243887904  
H -23.2795264296 -24.4384841528 53.0742293756  
H -22.1923474267 -22.2794808914 51.6373894738  
H -12.9349311562 -8.6047702088 36.7583203784  
H -15.4095028257 -7.8583779354 36.7275040805  
H -15.9521647189 -9.8711161440 38.1978016770  
H -13.0101042676 -12.0767838147 36.5646179349  
H -14.7924938008 -19.2690411821 36.4786524703  
H -15.1825293290 -15.7313811519 36.7465541555  
H -17.5030347395 -15.5301019800 37.0229403279  
H -17.9670909758 -17.3959220840 38.3979075070  
K -6.4735089155 -13.0324148135 39.4868033916  
Al -9.7717235320 -23.8857777865 40.3233258033  
Si -7.9580386483 -12.1216776846 42.4307603625  
Si -13.7561142757 -23.8324995909 40.2913088705  
Si -10.0579370309 -11.7400192484 40.2272750049  
Si -11.7151859640 -24.1465627047 42.6773707874  
Si -6.8863557386 -10.1457334693 37.6026068963  
Si -11.7110550172 -21.9335504270 38.8591114240  
O -15.2847997185 -23.4592446247 40.5295148505  
O -10.1801625216 -12.7920377458 38.9917415681  
O -11.3489565079 -11.7622328074 41.2096345455  
O -10.3169631474 -23.9621994930 41.9586706884  
O -5.9851942904 -9.3321003018 36.5374835844  
O -13.0849816819 -22.7256325387 39.2931809905  
O -7.8341373313 -7.1558055853 37.2773949014  
O -6.5169107601 -10.0730401863 39.1958495147  
O -8.1768055905 -10.6803822358 43.1605063034  
O -9.8468575326 -10.2908542574 39.5557198394  
O -8.4594199873 -9.7312506009 37.2573042760  
O -10.3637052679 -22.3838964637 39.5913386772  
O -8.5964559234 -12.0526537377 40.9345290505  
O -12.9246948992 -23.8375426983 41.6934904425  
Al -7.9196307587 -16.3043816167 40.2016614587  
Si -10.0369427094 -14.3894841388 38.9385134174  
Si -8.8536275163 -17.9540661591 37.7231506483  
O -13.5106620695 -16.0114066229 40.7607571477  
O -6.6074342097 -11.7001147930 37.2810768486  
O -8.9789314286 -19.6132518922 37.5137599078  
O -11.4304999576 -15.0892482077 39.5260241342  
O -7.5326322778 -17.4708426079 36.7592008440  
O -8.5506468664 -17.6620030802 39.2569218141  
O -9.7495807791 -14.6106184747 37.3390274970  
O -8.7786634358 -14.8665466548 39.8012897140  
O -10.2325023499 -17.2316260548 37.1398821750  
O -19.3931234422 -28.0678732323 52.8501908883  
Al -15.8360737667 -15.9493609627 49.6958826688  
Si -13.7514437462 -17.8720710651 51.0206633058  
Si -18.8596141457 -29.4968781631 52.2942168502  
O -24.7327122782 -16.4207053347 49.3031949880  
O -17.5872943002 -20.4947724370 52.7300473480  
O -12.5896295012 -16.9107647089 50.3849671050  
O -19.2886476225 -30.6647196148 53.3234011551  
O -19.3314302130 -29.6273234617 50.7717316533  
O -13.6235380277 -17.9072666879 52.6740177156  
O -15.1911575491 -17.4278668021 50.3750418559  
O -17.1903858770 -29.4250380535 52.2453910277  
K -17.6251581115 -19.0637050608 50.0369430455  
K -11.8179835101 -24.4616593224 46.6065688230  
K -19.4980521355 -26.5078080026 50.4257886943  
Al -17.8767611173 -23.4952511755 49.6326492266  
Si -15.8847613446 -20.0253773331 47.1242025840  
Si -13.8605456867 -23.4531283758 49.3829171507  
Si -13.8010233999 -20.5689824179 49.3869993097  
Si -15.8077755422 -23.0497903496 47.1073936943  
Si -17.0555441789 -21.9922096359 52.2108927826  
Si -15.8901852846 -25.3421556451 50.9491855033  
O -26.6990564656 -23.9133022944 49.3500197523  
O -13.4080486093 -19.4542199417 50.6254142704  
O -15.4902101048 -26.8319173248 50.5111938626  
O -15.9629415968 -24.0730639254 45.8691388183  
O -12.4639194284 -20.7271358171 48.5031718797  
O -17.0927378481 -23.2002926627 48.0558152862  
O -17.5142729452 -23.2969486177 53.2364751825  
O -14.6864452744 -24.3859577357 50.4227470857  
O -15.7327408238 -25.2085771955 52.5906936480  
O -17.6191142586 -22.1752483807 50.7159421478  
O -15.8371927160 -21.5272014058 46.4546484768  
O -14.0496043182 -22.0074863789 50.0391842308  
O -15.4748057306 -21.8625922936 52.4440560957  
O -17.3368564929 -24.8925468028 50.4121014556  
O -15.1525329352 -20.0199039726 48.6086676733  
O -14.3896505255 -23.3411515809 47.8393007781  
K -10.1254339694 -16.8622057013 46.4964305741  
Al -12.0128410914 -12.0890563273 42.8056786456  
Al -13.6770224502 -27.5270087014 46.7978699964  
Si -11.8226867770 -15.8716896535 49.4243790787  
Si -17.7496247858 -27.5727459006 47.1318066056  
Si -13.9046283887 -15.5032252091 47.1509367229  
Si -15.6176782424 -27.9020689342 49.3039954114  
Si -9.8306131573 -13.9247139102 44.1448669023  
Si -15.7287709043 -25.6471019739 45.4836549473  
O -20.8172263461 -12.5578527663 42.3317479978  
O -19.2670481740 -27.0514884102 47.2783641154  
O -14.1267271170 -16.5414047049 45.8937918565  
O -15.0795457852 -15.7435776275 48.1417007084  
O -14.3720467544 -27.9754999958 48.3241972254  
O -8.6341137053 -13.2901071536 43.3067436439  
O -16.8794368883 -26.5326422019 46.1856261990  
O -15.6862296090 -25.8368223040 43.8940142338  
O -9.9592225685 -13.8816043474 45.7285844833  
O -15.6969143719 -29.3963451902 50.0445470670  
O -13.7452563885 -14.0203494078 46.5083568816  
O -11.1408536034 -13.3910418178 43.4434559470  
O -14.3966420701 -26.0333971410 46.2448575247  
O -12.5120603971 -15.9746696885 47.8331375185  
O -17.0230680658 -27.5374665333 48.5796923491  
K -13.5769534437 -15.1277937769 43.4053557970  
K -8.2746320556 -20.9023814276 39.6359222561  
K -15.6330609863 -22.8608742466 43.3895074152  
Al -11.7218411673 -20.0614230441 46.9825276564  
Al -13.9178990247 -19.6548003240 42.9018094863  
Si -11.9945187027 -16.3507047065 40.4754062341  
Si -9.8924107002 -19.6101125457 42.7848676393  
Si -9.8325958896 -16.6113288331 42.6787315071  
Si -11.9472150063 -19.3135088936 40.3736724301  
Si -13.7718305237 -18.1665418087 45.6098817049  
Si -11.8717528067 -21.5688512515 44.3181585511  
O -17.3652796371 -19.5147273952 47.3726539825  
O -22.7716027005 -20.0376914962 42.4971154558  
O -9.7453138910 -15.5445202575 43.9061806683  
O -11.6520905213 -23.1253457932 44.0004705354  
O -11.9860061562 -20.3686917985 39.1206897650  
O -8.4369422079 -16.5545794464 41.8823103037  
O -13.2404203008 -19.3272857943 41.2460538066  
O -15.1521282560 -18.9163938993 46.1803434051  
O -10.5664356848 -20.6891356485 43.7888386096  
O -11.9386666135 -21.3783928623 45.8674579293  
O -13.5830328642 -18.3236052445 44.0252836583  
O -11.6860082249 -17.7813798122 39.6993157830  
O -9.9962344791 -18.1311778022 43.3404414657  
O -12.4931940268 -18.5564630853 46.4501661062  
O -13.2884319290 -21.1227583182 43.5284609036  
O -11.2464115007 -16.3484732135 41.9065631303  
O -10.6996808428 -19.6616221378 41.3918909355  
H -18.4207743800 -20.4015286389 53.1205738858  
H -20.0791736176 -31.2059822334 53.0939998316  
H -14.0607232188 -17.1860110813 53.0234825371  
H -16.8246714410 -29.5548533109 51.3466757240  
H -18.9500415362 -27.5553530469 53.5610468388  
H -18.3446435073 -23.7657745658 52.8708418100  
H -16.2551816136 -24.5344262111 53.0575005282  
H -14.8082631897 -22.0764897120 51.7063059217  
H -6.3063854282 -8.5498281856 36.1098174045  
H -7.9149312830 -8.0407941518 36.9871614055  
H -9.0524761844 -9.9247404918 37.9764045867  
H -7.1359488583 -12.1349004197 36.6432995473  
H -9.7809642504 -20.0704944677 37.1478063659  
H -7.4890193578 -16.6252603671 36.3062412872  
H -10.1504850745 -15.4215029136 36.9854805166  
H -10.9919811474 -17.5545862640 37.6284605695  
O -22.4575069964 -30.9517544138 60.7229945792  
H -22.9512271999 -30.4811090261 60.0768128329  
H -23.0215470161 -31.6845143589 60.9770489409  
O -28.4609774198 -29.3015056118 59.6222524295  
H -29.0254580341 -30.0555406682 59.2731878196  
H -27.7147168738 -29.7701445211 60.0054951151  
O -21.4219800849 -25.1860678964 59.6031223121  
H -21.0623445045 -24.5080649973 58.9694271697  
H -20.7106698475 -25.8894640396 59.4712125490  
O -18.5990729884 -22.0270943188 59.0195336695  
H -17.8794790671 -21.3963806870 58.6475769527  
H -19.4972442749 -21.7185412951 58.7625177415  
O -22.9174531474 -26.9631984059 58.2193504765  
H -22.6389898924 -26.0306627546 58.5246319308  
H -22.1363433805 -27.3794086015 57.7471807601  
O -31.2713798715 -23.2429423022 61.0058641804  
H -17.5333594287 -22.8465008030 60.3732095883  
H -30.8793722794 -22.6111446082 61.5909736274  
O -23.5370884152 -24.3583003123 61.3965508029  
H -24.0854926942 -24.3168909955 60.5604286029  
H -22.6534136434 -24.5073485213 60.9516755217  
O -19.8333984084 -24.7329201155 52.9576076978  
H -19.8974142090 -24.8482382322 53.9446096937  
H -20.7576227417 -24.8140239886 52.7985635842  
O -20.4020064966 -24.9608334812 55.7590893178  
H -20.9626709904 -24.2786458641 55.9724821750  
H -20.7143775592 -25.7603024504 56.1655442797  
O -22.7523554286 -24.0925882443 57.0889126217  
H -22.7518494193 -23.2383400446 56.6832580831  
H -23.6513481524 -24.3514813595 56.9360317676  
O -29.0145152542 -23.1243557833 59.4269491394  
H -29.8803001768 -23.2002040804 59.7433564778  
H -28.8867463405 -23.8278357198 58.7780459539  
O -28.2960055019 -22.0744986245 55.1463652664  
H -27.8842601461 -22.8246977625 54.6458605644  
H -27.7731421614 -21.9872118103 55.9829677204  
O -30.8914711323 -33.7389755249 60.0430349688  
H -30.9008743892 -32.8338493841 59.8520539647  
H -30.9629234943 -33.7926879611 60.9963391429  
O -20.0079704826 -31.9431752430 59.9037613111  
H -19.9665643928 -31.7368215135 60.9446317965  
H -20.9250023006 -31.7183345754 59.6813236705  
O -21.1740602362 -22.0292572082 54.8948722592  
H -21.4196755117 -22.1837401771 53.9831100554  
H -20.7710852087 -21.1385576130 54.8404434735  
O -16.3538164702 -22.6199917164 55.8029525158  
H -15.4273058879 -22.4565459370 55.4689358643  
H -16.8447290206 -22.7357840043 54.9574653629  
O -30.9763985952 -33.8060397194 62.8758131406  
H -31.2785031116 -34.7409786184 63.1864574311  
H -31.0077807397 -33.2775787186 63.7058521235  
O -20.7674339308 -28.4155030812 61.6534066463  
H -21.6697068670 -28.7546080740 61.4526604777  
H -20.5489189494 -27.8911193694 60.8836395395  
O -23.7211357709 -29.4607844336 57.3221559771  
H -24.6146293638 -29.1773911334 57.2072952307  
H -23.1166852445 -28.8360029232 57.8357876216  
O -24.0957488767 -35.2335020790 61.6169873853  
H -23.4745553386 -35.6321155906 61.0558906379  
H -24.8441406794 -35.8431787345 61.6883051031  
O -32.2091086294 -29.3303019778 60.6223013255  
H -18.4662039087 -28.7392877794 60.1517324557  
H -31.5780659523 -28.7452183628 61.0382813249  
O -18.4914444305 -31.7673804387 57.5443534908  
H -19.0686529060 -31.8085914836 58.3353318156  
H -18.4738282865 -32.6755482937 57.1577490272  
O -27.2465874177 -25.4496179264 62.3650630201  
H -27.1150672689 -24.5217731783 62.2502823160  
H -28.0671526522 -25.7632102088 61.9672526301  
O -24.5890231993 -21.7377791680 57.9156698689  
H -24.2496383123 -20.9946871058 58.4631594198  
H -24.3895383856 -21.5055774690 57.0272800260  
O -27.9576702370 -19.0915985017 56.6339520066  
H -28.0010873202 -19.9833151970 57.1295741263  
H -14.0932021322 -19.2547538686 55.7975896795  
O -25.1245541981 -25.4520781522 57.1034803261  
H -24.5217490548 -26.1988900324 57.0897130450  
H -25.9167502735 -25.5736254398 56.5439043831  
O -20.1038167168 -30.2127427086 56.0077808434  
H -19.8846298164 -30.4608481378 55.0603998018  
H -19.4345696335 -30.7046670802 56.5130880853  
O -17.3152405065 -17.5365550828 52.8834884984  
H -16.9684078025 -18.3654940202 53.1809258041  
H -18.0083884801 -17.2976071450 53.5141420322  
O -20.2216673144 -31.3079243163 62.5156226466  
H -34.0577360484 -30.9219622950 63.2172737289  
H -20.7383522548 -30.5500040929 62.1932921757  
O -16.9631368941 -26.3108221001 57.7303718703  
H -17.2250740672 -26.5623130708 56.8261336457  
H -17.5365479997 -25.5525702506 57.9890686874  
O -22.5949503031 -21.5938037857 61.4083170257  
H -27.2115994216 -36.0744611330 61.4329700640  
H -22.8993762954 -22.5209218731 61.5310219207  
O -29.0066134892 -35.5179123055 61.6020995115  
H -29.3747612670 -36.4034482002 61.7372910103  
H -29.4778066201 -34.9583481129 62.2234681348  
O -33.3031426693 -34.6615339981 59.3269762667  
H -19.4254507641 -33.8714011377 59.6690771937  
H -32.3678499340 -34.2923133287 59.5540563626  
O -25.8672416734 -31.2663813895 55.6487909843  
H -24.8766732146 -31.1849127074 55.6335829413  
H -26.0798667122 -30.7888603968 54.8454861404  
O -19.1074329463 -26.9940628514 59.6347390333  
H -18.5005384521 -27.1696547987 58.9104359710  
H -18.5859195124 -26.3423735607 60.2186478452  
O -17.5310699949 -18.5732371840 55.8579415979  
H -17.6868204879 -19.3579279734 56.4804308138  
H -16.6255828458 -18.6930868907 55.5074362260  
O -21.0303061471 -27.6998509054 56.4007086512  
H -20.8157650727 -28.6719459869 56.4957188992  
H -21.7494172401 -27.6200586647 55.7343562373  
O -22.9686297207 -27.2835354330 54.6888432967  
H -23.5832269549 -27.9357496318 54.3027991294  
H -22.8479626026 -26.5634760925 54.0096040673  
O -27.4894455192 -24.3140022867 52.9726556563  
H -13.9936233565 -24.4140089805 52.5421079524  
H -27.4958734938 -25.0336594934 53.6120338043  
O -26.5151290321 -28.5237219558 57.9512887067  
H -26.0793269620 -27.9310510546 58.5263128197  
H -27.2076550119 -28.9538672702 58.4889330507  
O -30.5859232299 -30.8558142092 58.9925594036  
H -31.1453031362 -30.1702539300 59.4254283351  
H -31.1443143765 -31.2096549284 58.2893875170  
O -21.3010301900 -33.7846176925 62.9511329750  
H -22.2287545060 -33.8055975501 63.2380046929  
H -21.0679826870 -32.8631462863 62.6860327715  
O -27.3359371145 -25.8202767787 55.6128519773  
H -28.0409057012 -25.6437143889 56.3424378335  
H -27.4396191566 -26.7744186912 55.5224041421  
O -31.7753610090 -36.2268658531 63.6849610748  
H -32.7041756722 -36.2912671036 63.3861630495  
H -31.2815098530 -36.7858580606 63.0065222688  
O -23.5354237627 -20.6613719990 55.4281943174  
H -22.6512080518 -21.0733251539 55.2287288260  
H -23.4170766342 -19.8517274558 56.0102621557  
O -19.0488271138 -24.5483582834 58.0916029147  
H -19.2132846721 -24.5139255781 57.1492645400  
H -18.8053055419 -23.6341201066 58.4314626563  
O -28.1187222189 -28.4376247584 55.2773145215  
H -28.9733711689 -28.8974886810 55.1094657513  
H -27.7426161888 -28.9789936941 55.9139712303  
O -23.9864757933 -28.6347857655 60.5078407907  
H -24.3485596988 -27.9806857180 61.1720320617  
H -23.4825327367 -28.0140770308 59.9423417152  
O -24.9951150901 -17.4740197930 52.9343954216  
H -24.5037730901 -18.0437777975 53.5253479587  
H -25.9099310419 -17.4943339550 53.2646500834  
O -27.1175683874 -33.3213805496 56.8898473420  
H -27.2690392426 -33.4998405439 57.8235411448  
H -26.4355989338 -32.6353138671 56.7568970286  
O -29.5731034263 -26.7835329140 60.0232645128  
H -29.1655125985 -27.6716227693 59.9083237241  
H -30.1802169002 -26.7681306472 59.2960799266  
O -22.3235680327 -31.7606223567 57.4139645319  
H -22.1190139810 -32.0603619755 56.5018021165  
H -22.8249808823 -30.9315833176 57.3135914476  
O -21.3238010784 -21.5547962464 58.8015783995  
H -21.6685233896 -20.8795141671 58.1724456700  
H -21.7464138552 -21.3978477017 59.6510676690  
O -29.2211972161 -24.7894541760 57.3085487807  
H -29.5547934629 -23.9560032776 56.9016936071  
H -30.0084124514 -25.3612233730 57.4914455093  
O -27.9148026890 -34.4671530504 59.2206800498  
H -27.2490135056 -33.8916592082 59.6228927681  
H -28.5999035508 -34.4524287694 59.9734781823  
O -33.8808495817 -35.8711207397 61.9981489702  
H -33.5368172197 -35.6305233202 61.0762213903  
H -34.5414001993 -35.2181693901 62.3326458757  
O -25.3811454517 -33.3310256256 59.8701435317  
H -24.9479490684 -33.9280268524 60.4942335943  
H -24.8730575056 -33.5421824003 59.0597949625  
O -25.1940997341 -24.0992522812 59.3353807116  
H -24.8552494971 -23.4216416620 58.8024588651  
H -25.2062900093 -24.8666860900 58.7415466505  
O -18.1740893333 -27.3350498217 55.1875070250  
H -17.6502204390 -28.1573988017 55.1400419222  
H -19.0030752381 -27.5307093352 55.6749648269  
O -29.7506038623 -32.5821243814 55.4141068669  
H -28.9044422049 -32.6436040370 55.8825946361  
H -30.2866844356 -33.1540892636 55.9946539009  
O -26.9977994042 -22.7159382950 61.2639206588  
H -27.8703226640 -22.7798600548 60.9307044307  
H -26.5289483846 -23.0526505291 60.4860692764  
O -15.1605291098 -19.4888069686 54.3704349000  
H -15.1551264101 -20.3912884599 53.9945561089  
H -14.6707339437 -18.8925220545 53.7198508255  
O -16.2565437514 -29.7253261199 54.7133362503  
H -16.6433982365 -29.6867677937 53.8051759514  
H -30.6118450610 -30.6135618418 55.1205916355  
O -24.1210107177 -33.8317787443 57.3715420960  
H -23.7083435647 -32.9465305910 57.5770107622  
H -20.0352394578 -18.8410068771 56.4179977949  
O -24.7908201643 -26.8478101099 62.1355816543  
H -25.6957133199 -26.4911080811 62.2053785678  
H -24.3880456649 -26.0188845317 61.9393178562  
O -27.3966189193 -21.5292290816 57.5417921361  
H -26.4809912465 -21.5234166467 57.7955263286  
H -27.8748491294 -21.8297758628 58.3603050232  
O -19.6468470164 -19.6475025147 54.3683537993  
H -20.1275416961 -18.8939334441 53.9617387528  
H -18.8553642578 -19.1576431023 54.7090139643  
O -31.9585827652 -25.9470375568 61.6554077046  
H -31.6663798108 -25.0098045395 61.8622370905  
H -31.0139890862 -26.1996648408 61.4276872701  
O -25.9941413526 -30.5116931200 60.2138453053  
H -25.2082143026 -29.9611764943 60.1240378088  
H -25.7080538706 -31.4143956834 60.0347105663  
O -22.9834716584 -30.7703891862 54.7144568429  
H -22.2607478563 -30.2120466786 54.9968461902  
H -23.2991986059 -30.3613372326 53.9046685701  
O -17.0714451973 -20.6138682398 57.4672727251  
H -16.8142867519 -21.3165758668 56.8829637015  
H -16.3456091071 -20.3360421789 58.0106000747  

