&CONTROL
   calculation      = 'scf'
   tprnfor          = .true.
   outdir           = './'
   disk_io          = 'none'
   pseudo_dir       = '/scratch/zhouwq/DFT-feldspar-surface/script-dft'
/
&SYSTEM
   tot_charge       = 0
   ecutwfc          = 110
   input_dft        = 'SCAN'
   ntyp             = 5
   nat              = 493
   ibrav            = 0
/
&ELECTRONS
   electron_maxstep = 25
   mixing_beta      = 0.5
/
&IONS
/
&CELL
/
&FCP
/
&RISM
/
ATOMIC_SPECIES
K 39.0983 K_ONCV_PBE_sr.upf
Al 26.9815385 Al_ONCV_PBE_sr.upf
Si 28.085 Si_ONCV_PBE_sr.upf
O 15.999 O_ONCV_PBE_sr.upf
H 1.008 H_ONCV_PBE_sr.upf

K_POINTS gamma

CELL_PARAMETERS angstrom
14.38000000000000 0.00000000000000 0.00000000000000
3.79226300000000 15.03099300000000 0.00000000000000
-16.02692595000000 -16.61449229999999 28.01481620000001

ATOMIC_POSITIONS angstrom
K -13.4198777326 -13.2794937783 39.3384849504  
Al -13.2970937703 -8.8671008751 40.0987270197  
Si -15.3425031933 -12.1441551885 42.7194730541  
Si -21.1132542845 -23.8892323772 40.5014199920  
Si -17.3932697694 -11.8395333113 40.4032080506  
Si -19.0297627528 -24.2213421422 42.7222745357  
Si -14.0765901405 -10.3332595049 37.5372923534  
Si -19.2182921943 -21.9508944776 38.8166889881  
O -22.6440079795 -23.3268498565 40.5440825550  
O -17.5370338710 -12.8170554073 39.1068424416  
O -18.6912534816 -11.7857940716 41.3425048167  
O -17.7058008420 -24.1443364528 41.7199844544  
O -13.5162787476 -9.4631106974 36.2165938754  
O -20.3352663781 -22.8144468853 39.6147110381  
O -19.4286236062 -21.8387956816 37.1834252036  
O -13.4745741285 -10.1639176257 38.9564428997  
O -19.3099382058 -25.6789417355 43.3763004304  
O -17.1503448983 -10.3257647664 39.7928852691  
O -15.6356282073 -9.8598167834 37.5444961633  
O -17.7650431785 -22.5176195331 39.2544405018  
O -16.0890521048 -12.1741852786 41.2703066332  
O -20.4697533213 -23.8591661275 41.9874058856  
Al -15.2663146297 -16.1775378638 40.2108663268  
Si -17.4064180715 -14.4290590613 38.8675959112  
Si -15.8579731438 -17.6129445499 37.6469503482  
O -20.8558928663 -15.9221467763 40.6345303901  
O -13.9801008370 -11.8723913464 36.9548243034  
O -15.4357752382 -19.0876494293 37.0435912496  
O -18.5706755626 -15.2567810038 39.6059063816  
O -15.1158169494 -16.5640968300 36.6488224682  
O -15.4835965813 -17.5831090968 39.1482243272  
O -17.6614084244 -14.5833380573 37.2712316418  
O -15.9259091877 -14.8393426268 39.3306408018  
O -17.4665082708 -17.4786518370 37.3314234755  
O -26.6844193049 -27.7021930509 52.3205507775  
Al -23.1381898304 -15.9028459701 49.4981781088  
Si -21.3232962397 -17.7566891047 50.9668748587  
Si -26.3335739799 -29.2449893260 52.0310376626  
O -17.6906955582 -16.3022962151 49.4643202024  
O -24.2503474927 -19.8656011894 52.2662820764  
O -20.0461986262 -16.7435365382 50.6499072239  
O -27.0339384487 -30.0906867539 53.2024571914  
O -26.7668174532 -29.5859920620 50.5352866045  
O -21.4780994531 -17.6979064813 52.5573159955  
O -22.5978942230 -17.3920179384 50.1184261395  
O -24.6692575054 -29.3941220968 52.2373867945  
K -24.7266264704 -19.1790347767 49.7463093380  
K -19.0301383820 -24.2682012155 46.6295409723  
K -26.4731053659 -26.4039719153 49.9185604365  
Al -24.9223942576 -23.2602353810 49.6865977583  
Si -23.0305626675 -20.0357715082 47.1037117470  
Si -20.8647356537 -23.2894630312 49.5036209874  
Si -21.0854348864 -20.4673860503 49.4147739989  
Si -23.0061428605 -23.0286099365 47.1726281949  
Si -24.3579402129 -21.5444337705 52.2578776315  
Si -22.8560985199 -25.2978158948 50.9684757053  
O -19.3569961725 -23.5389852586 49.2249936297  
O -20.8360281265 -19.2435068078 50.5400891444  
O -22.6935318612 -26.8654367273 50.6549498909  
O -23.1439438897 -23.9807307693 45.8145499478  
O -19.9108569697 -20.3903614498 48.4124038752  
O -24.2942906845 -23.1901920465 48.0775868005  
O -25.3050475161 -22.0026023467 53.4304177530  
O -21.5099377518 -24.4852340165 50.3826458774  
O -22.8402919973 -25.2312882549 52.5567556992  
O -24.6677657570 -21.9170110310 50.7815768601  
O -22.7858437765 -21.5016998226 46.4477648363  
O -21.2143069329 -21.8672675025 50.2737082635  
O -22.9434369889 -22.1793846804 52.7355702689  
O -24.1712354806 -24.7024270362 50.2949194815  
O -22.5143735184 -20.2222017775 48.6864688200  
O -21.6224852522 -23.2655728933 48.0350843222  
K -17.5589697127 -16.7879429469 46.4758596948  
Al -19.3744644022 -12.1700956156 42.8762759824  
Al -20.7651819335 -27.5495340165 46.9462684800  
Si -19.2119910033 -15.8610337377 49.5848639544  
Si -24.9282441106 -27.6077735322 47.1274843196  
Si -21.0479732773 -15.4199895839 47.1784712851  
Si -22.8820914793 -27.9314722221 49.4547151225  
Si -17.3455103291 -14.0090855422 44.3403302771  
Si -22.9390841227 -25.6294391608 45.5151916261  
O -13.8107535681 -12.4604574639 42.4863097409  
O -26.4494890189 -27.0467661895 47.1607018874  
O -21.1436103752 -16.4757172416 45.9529431399  
O -22.4280454354 -15.4905741981 48.0176350938  
O -21.6558185262 -27.8777972555 48.4526651682  
O -16.1757499588 -13.1845744332 43.6650931643  
O -24.1828742263 -26.3910899972 46.2637475150  
O -23.1870767068 -25.8095766051 43.9497236969  
O -17.2650584000 -13.9276616251 45.8648165323  
O -23.1086598320 -29.3441544424 50.1447600667  
O -20.8674723902 -13.9865953185 46.4736185095  
O -18.6673037483 -13.5748217234 43.5961767164  
O -21.5104305103 -26.0810923966 46.1128677192  
O -19.7203199226 -15.7551107970 48.0310021632  
O -24.2632887587 -27.6533265823 48.6030647100  
K -21.1504963090 -15.7485806976 43.2117333959  
K -15.3874348320 -20.4040127553 39.3033463666  
K -22.7814948378 -22.8260916908 43.4056759663  
Al -18.9811822880 -20.0504555891 46.9229761614  
Al -21.2618617926 -19.6010153812 42.9856938503  
Si -19.3816242027 -16.3728222161 40.4366657454  
Si -17.0905091606 -19.5296902270 42.7122692442  
Si -17.2979615428 -16.6213317185 42.7508496482  
Si -19.1514962506 -19.2898101937 40.4173755434  
Si -20.9817771288 -18.0364617752 45.5703407929  
Si -19.1197369559 -21.5630736141 44.2622890034  
O -24.5172719005 -19.4784763318 47.1434927860  
O -15.6289121648 -20.0500769634 42.4783855501  
O -17.1904642073 -15.6654341205 44.0910784552  
O -18.8134848305 -23.1470561340 43.8984165621  
O -19.3502831863 -20.3955764491 39.2353904268  
O -16.0915203626 -16.3155132416 41.7310302962  
O -20.4122718853 -19.3222859369 41.4163038468  
O -22.1987501066 -18.8712651355 46.3481921753  
O -17.9172114786 -20.6671909465 43.5944958275  
O -19.0259386319 -21.4215239853 45.9208461647  
O -21.1526335093 -18.2287544336 43.9972688421  
O -19.1548394699 -17.7770874502 39.7030777726  
O -17.0865718014 -18.0865717620 43.4180825277  
O -19.5841135045 -18.5415614139 46.2004340304  
O -20.5466855507 -21.0670427724 43.7087962776  
O -18.7067430307 -16.5956270654 41.9586706884  
O -17.7271356973 -19.4334216588 41.1696934219  
H -24.0165189284 -19.3027366865 52.9946672976  
H -27.7767688983 -30.7287730514 52.9617698991  
H -20.6303269546 -17.3479904428 52.9857025564  
H -24.1632813465 -29.2845598144 51.4616165128  
H -26.7306862371 -27.3616248497 53.2160643879  
H -25.9728679035 -21.4477229166 53.8248663651  
H -23.1758062472 -24.4801096544 53.0384504532  
H -22.2105833458 -22.1472236316 52.1111600369  
H -12.6453974418 -9.0973992359 36.3651524436  
H -15.7402150381 -7.7179837809 36.7977012057  
H -16.1703180352 -9.8748227245 38.3236282229  
H -13.6981475947 -11.9217476891 36.0288946068  
H -15.9418335455 -19.5106216704 36.3410597016  
H -15.5670254751 -15.7018234995 36.6005569420  
H -17.6674009884 -15.5431855221 37.1314777301  
H -18.0890558445 -17.7062270570 38.0630103900  
K -6.6092129983 -13.0833953401 39.6961941321  
Al -6.0621128852 -8.7691489227 40.0189248147  
Si -8.1096339796 -12.1247849854 42.5991694291  
Si -13.8028653270 -23.8107962310 40.3363727034  
Si -10.0227914159 -11.7275315012 40.2582513874  
Si -11.8816191105 -24.1374064086 42.5199275204  
Si -6.4902569272 -10.2294093891 37.4299555862  
Si -11.8739380221 -21.7910887668 38.7601791017  
O -15.4004293849 -23.4480677107 40.4052091089  
O -10.0408134871 -12.7929099655 39.0352845968  
O -11.3328301593 -11.7232140275 41.2117156462  
O -10.6952308512 -24.1776516894 41.4568052668  
O -5.7848223426 -9.0778717410 36.4025322126  
O -13.0529734995 -22.6456765158 39.5630036916  
O -12.0911938366 -21.9875609200 37.1518885248  
O -6.0152574389 -10.1667082874 38.9658878949  
O -8.3605748874 -10.6287292388 43.1051170096  
O -9.7196921785 -10.2807998572 39.6534515268  
O -8.0304350491 -9.8538668678 37.2176032794  
O -10.4841648673 -22.2216914499 39.4170865204  
O -8.7766112429 -12.1855432491 41.1516838972  
O -13.3189170355 -23.7034675798 41.8738258165  
Al -8.1384944224 -16.2973361309 40.1177770947  
Si -9.9863236312 -14.3518029600 38.6449981859  
Si -8.7966610008 -17.7338416916 37.6232578179  
O -13.6024958368 -15.7102231878 40.4618790800  
O -6.3204672413 -11.8222604738 37.0549572607  
O -8.6426177623 -19.2925326258 36.9680312882  
O -11.2428191308 -15.1387156865 39.3817878520  
O -8.0117680094 -16.7037882318 36.5559733631  
O -8.1748320991 -17.6551465581 39.0503325552  
O -10.3024053982 -14.4657663888 37.0986603740  
O -8.6474323533 -14.9632805679 39.2165004364  
O -10.3321797248 -17.3245118739 37.3937764521  
O -19.4023693152 -28.0311730673 52.7982434148  
Al -15.9510037157 -15.8614882376 49.6624249741  
Si -13.7909936093 -17.7132805029 50.9178089092  
Si -18.8465989245 -29.4196099049 52.2028085071  
O -24.7579690928 -16.2571530825 49.0106402646  
O -17.2911075296 -20.4791742543 52.7823149908  
O -12.4865024227 -16.8933015651 50.4473200817  
O -19.3341195105 -30.6764365818 53.2115019749  
O -19.4726611132 -29.6144844754 50.7479590806  
O -13.7853881320 -17.4397402275 52.5519531593  
O -15.1956037270 -17.2383623282 50.2709868243  
O -17.1873340789 -29.4372607019 52.3158282799  
K -17.7563176264 -19.1857459074 50.3691187233  
K -12.0554210100 -24.3851518378 46.4405610264  
K -19.8460031285 -26.5321989309 50.9495056726  
Al -17.6774336058 -23.2936373894 49.6173611411  
Si -15.8219745980 -19.8845328108 47.2409843464  
Si -13.7216558041 -23.3206192685 49.4210173008  
Si -13.7675803193 -20.2726104580 49.4141336602  
Si -15.6491750524 -22.8677213324 47.1550188818  
Si -16.8668932049 -21.9647809427 52.2560366579  
Si -15.7751623239 -25.3010218983 50.9266135657  
O -26.5589909558 -23.7097669954 49.4567962232  
O -13.5349260213 -19.3104166909 50.7422760751  
O -15.5075700042 -26.9028647399 50.6731995426  
O -15.7224011870 -23.8824580691 45.8474473463  
O -12.5234243950 -20.2466471898 48.4173664998  
O -16.8754381278 -23.0510440643 48.1173678395  
O -17.3640804649 -23.1510688487 53.2874621480  
O -14.5271848689 -24.4890422356 50.2932385926  
O -15.6261928343 -25.2128703245 52.5520332016  
O -17.3738074120 -22.0021123843 50.7090585073  
O -15.5551533469 -21.3540602415 46.5417345340  
O -13.9505215106 -21.7818978110 50.0507103266  
O -15.2426663983 -22.0377666269 52.3576103772  
O -17.1888831488 -24.8212688519 50.3563919925  
O -15.1577297901 -19.8520943389 48.7360950658  
O -14.2129033640 -23.3000822971 47.8938096062  
K -10.3293264187 -16.7085116815 46.1754608228  
Al -12.0789348894 -12.1221566688 42.7652572680  
Al -13.7482720574 -27.6174630946 46.9597155918  
Si -11.8020311708 -15.8342224900 49.3977249821  
Si -17.6767053859 -27.4982944220 47.1480551989  
Si -13.9657353090 -15.4473787071 47.1330072405  
Si -15.6420491313 -27.8867792424 49.4567962232  
Si -10.1979830078 -14.0382608983 44.1555925748  
Si -15.6837280389 -25.6043441159 45.5476087706  
O -20.9983039624 -12.6411003537 42.4265981613  
O -19.2036711996 -27.0501396403 47.2711603056  
O -13.9776563474 -16.4489585009 45.8237548160  
O -15.2703288116 -15.4317211506 48.0437288940  
O -14.2247430602 -27.8711775807 48.6119494089  
O -8.9031933324 -13.1652066843 43.6668540956  
O -17.0301710435 -26.3474140508 46.1710584946  
O -15.8187101949 -25.8667030812 43.9273918863  
O -10.3374603275 -13.8321590924 45.7369088858  
O -15.7923424494 -29.3719041358 50.1178658431  
O -13.7245408677 -13.9431749768 46.5132394639  
O -11.5909861409 -13.6535552435 43.4327302745  
O -14.4219921658 -26.0971352018 46.3927757542  
O -12.6565695636 -15.8304390698 47.9806555364  
O -16.8878681481 -27.5323960889 48.5621630784  
K -13.9472215660 -15.3463581233 43.4969242248  
K -8.0641359779 -20.3063729234 39.8171380957  
K -15.5369604188 -22.7792061633 43.1499407155  
Al -11.7886338160 -20.0728776995 46.8160396058  
Al -14.0543419157 -19.5001506300 42.8725940352  
Si -12.0693806886 -16.1673062377 40.3081978026  
Si -10.0312733843 -19.5354887602 42.6377498331  
Si -10.1753768982 -16.6733427201 42.5920456615  
Si -12.0050916898 -19.1689636649 40.3891206002  
Si -13.8367703735 -18.0989968591 45.5837078623  
Si -11.9371418736 -21.5674169391 44.2141835618  
O -17.3424824052 -19.4523157002 47.2728411945  
O -22.8257689096 -19.8667742148 42.5001570644  
O -9.8383935974 -15.6161265771 43.8600762851  
O -11.6858181764 -23.1708591388 43.8005247900  
O -12.2726528510 -20.2295932413 39.1170878601  
O -8.9961251609 -16.6846723214 41.5477333559  
O -13.3205814131 -19.0474230418 41.3341003718  
O -15.0229106812 -18.7398930018 46.4068632046  
O -10.6148530998 -20.6377562802 43.6454827930  
O -11.8176393273 -21.5458246282 45.8148701172  
O -13.8436059242 -18.1582383804 43.9601292001  
O -11.7938726454 -17.6782107812 39.6938729045  
O -10.2394001916 -18.0960062596 43.3789418274  
O -12.4272486279 -18.5833890973 46.1228730107  
O -13.2435094075 -20.9293559272 43.4900405842  
O -11.5220408740 -16.2676774980 41.8512538788  
O -10.6429957129 -19.5958084651 41.1324737375  
H -17.9036962066 -20.4744208716 53.5636882357  
H -20.1073085972 -31.2552007975 52.8077684523  
H -14.3403166054 -16.7399743309 52.9731359102  
H -16.7241574643 -29.3020809883 51.4568940152  
H -18.8934474388 -27.6769196633 53.5588856958  
H -18.1992538128 -23.6590379660 53.1987752442  
H -16.0266561343 -24.4257617777 53.0264441034  
H -14.7374119391 -21.9524222086 51.5493429086  
H -5.0595077567 -8.6396252018 36.8893496758  
H -7.9177507033 -7.7092804098 36.6853217716  
H -8.5653725364 -9.9148933744 37.9884909789  
H -5.9642772534 -12.0319887770 36.1970635464  
H -8.9997086739 -19.2972385345 36.1177415954  
H -7.1269080712 -16.4422927268 36.6991690950  
H -10.1190895947 -15.3682124432 36.8638161719  
H -10.9767939615 -17.5705817852 38.0962279577  
O -21.8788981029 -31.8063135181 62.4348599336  
H -22.0894397835 -32.7761136826 62.5487601721  
H -22.4612036267 -31.4808696147 61.6966295056  
O -26.8762540960 -28.2392231556 60.3901785627  
H -27.8710954858 -28.0485848016 60.5561863593  
H -26.5788538831 -29.0723145702 60.8244082138  
O -21.6336954416 -26.9187645058 62.1226948388  
H -20.8184391248 -26.6673870394 62.4851265181  
H -21.7557795236 -27.7154377145 62.5979862063  
O -20.5020124949 -22.4984344586 61.5254189575  
H -20.7713652832 -21.9069133871 60.8191254199  
H -21.2415297308 -22.4771325754 62.2000157315  
O -20.1361071293 -27.9792795810 59.9099245707  
H -20.6681762543 -27.6024035525 60.6492755914  
H -19.8942993584 -27.1464255163 59.4760951313  
O -17.7433781161 -23.5061136017 61.0911893064  
H -17.7007809659 -22.9863245467 60.2681140064  
H -18.6326547044 -23.4433113364 61.4261664658  
O -23.8718447832 -24.8052868189 62.7452640971  
H -24.6002070081 -25.2230147947 62.2654903591  
H -23.1092760178 -25.3806730087 62.5341924676  
O -19.5223616828 -24.7307082010 53.2672914803  
H -19.2822547797 -25.4953772136 53.8102986606  
H -20.2421968071 -24.2153472765 53.6197979105  
O -21.3428646899 -24.3120301497 55.3119728513  
H -22.3308781251 -23.9873176359 55.3216579735  
H -21.4034812036 -25.3254408736 55.1876671097  
O -23.9793011241 -23.4341743078 55.5017532205  
H -24.2869634045 -22.9224962590 54.7260629810  
H -24.7892600554 -23.9459847316 55.6471901377  
O -17.3492937033 -21.8300033833 58.8346358826  
H -16.3919196493 -21.6237697663 58.7726030753  
H -17.5889893101 -22.0566237195 57.8642826918  
O -26.6178216690 -20.2594412790 55.2651480871  
H -27.4213138303 -19.8633178229 54.8907100580  
H -26.0250121512 -19.5751931640 55.5888392777  
O -28.5718250440 -33.5792899602 60.0375920902  
H -29.0133906913 -32.7123061106 59.7254269954  
H -28.0134748102 -33.8224860667 59.2474141887  
O -19.8496929187 -32.3510001730 60.6271839077  
H -19.3244901053 -31.6189432504 60.2297737294  
H -20.5984702480 -31.9997137292 61.0853462161  
O -21.8591338041 -20.9678667959 55.1917492686  
H -22.1194058264 -21.1674462803 56.1442530194  
H -22.4638566311 -21.4885107147 54.5813464448  
O -17.9665392040 -22.7234572677 56.2349409816  
H -17.1503774816 -23.2562208115 56.1379296752  
H -18.0642697512 -22.3354020693 55.3572768112  
O -30.8964795524 -35.5723981354 60.0298279840  
H -26.5104923493 -21.2614505578 60.1413269525  
H -30.4879584469 -34.7116617641 59.8915148343  
O -22.2033205055 -29.2127878163 63.4693270324  
H -22.0875266652 -30.2055447678 63.3535858203  
H -23.1316862483 -29.0671481758 63.2201552529  
O -24.2596113556 -28.2917325439 56.4844329304  
H -23.6558881217 -28.8152094909 57.0616982288  
H -25.0111867165 -28.8319785790 56.2719205390  
O -18.9701284532 -26.3457290104 57.4081214417  
H -19.3364460356 -25.4523478287 57.5655647087  
H -18.1698842942 -26.4848666083 57.9161501229  
O -29.6184613048 -28.3431261172 60.3737698846  
H -29.4737110340 -28.4134390171 59.4003750852  
H -30.0568739043 -27.4957748639 60.4342018453  
O -21.6858855634 -32.5674513651 58.2585712192  
H -20.8723529753 -32.3778631720 58.7418668198  
H -21.3283485607 -33.0440181807 57.4887240700  
O -25.2977813650 -26.3367541175 61.0730997393  
H -25.8609819548 -27.0620638983 60.7356412676  
H -24.5350276482 -26.2181248658 60.3876172081  
O -26.7348519830 -32.0726058226 56.8334174979  
H -26.7452970270 -32.6394422071 56.0066602507  
H -26.6045276837 -31.1093109929 56.5665563631  
O -15.9473739220 -18.8686936872 56.4291236790  
H -15.6346349146 -19.5321357491 57.0680215730  
H -15.4046611723 -19.1228383008 55.6684013557  
O -22.5508539048 -28.6831089139 58.8941873776  
H -21.6097976391 -28.7923355122 59.0216147702  
H -22.9428778660 -29.4103799059 59.4174241019  
O -17.7266546121 -29.7485463104 56.4422506215  
H -18.5322707723 -29.3402917961 56.0966278319  
H -17.9006043667 -30.7632003489 56.4316850336  
O -17.5015815401 -17.3055182901 52.6568886565  
H -18.2634495682 -16.9072074913 53.1431458234  
H -17.4119071799 -18.1838813076 53.0875164027  
O -18.4488986905 -30.2834824662 59.3581127339  
H -18.1326685312 -29.9707928756 58.4678018751  
H -18.9927807620 -29.5984222648 59.7931428083  
O -15.6478083621 -24.0310945981 56.4814713641  
H -29.7131253228 -24.5575415430 57.2862970124  
H -29.3117170951 -23.3308001381 56.3675711257  
O -22.6367111248 -22.3955609656 63.0595102926  
H -23.2249232259 -22.3462678605 62.2656504438  
H -22.9080849717 -23.3004808715 63.3245304538  
O -23.8209001783 -22.0176050962 60.4993563035  
H -22.9750324461 -21.5618799820 60.1976767542  
H -23.9415818242 -22.7640535407 59.8943163160  
O -33.5089370360 -35.2878435217 61.0062643921  
H -33.8503601603 -34.4487835479 61.2167757253  
H -32.5553092282 -35.2962394036 60.8147230916  
O -22.8481316639 -30.9440544334 56.2338203889  
H -22.0211209713 -30.4891699409 56.0110625790  
H -22.5339481848 -31.4905931989 56.9899002570  
O -29.3916825458 -29.4572822812 57.3064676801  
H -29.4704535249 -30.2055819855 57.8889357300  
H -30.2432474936 -29.4145600485 56.8725581983  
O -23.6330950207 -30.9209835037 60.3772117049  
H -24.3861780532 -30.4690007966 60.7390830879  
H -23.8600434314 -31.5420131244 59.6299364934  
O -20.6729922982 -29.4736138226 55.8449747401  
H -20.3777556383 -29.9343935500 55.0519953570  
H -21.1380369423 -28.6747106563 55.5795543672  
O -22.3330556919 -27.1501700676 55.0473529017  
H -23.1490730207 -27.3694213902 55.5578628952  
H -22.7422813616 -27.0382026785 54.1377518408  
O -29.8325187097 -26.3614153560 55.0776089032  
H -15.3605234334 -25.9522621664 54.1996245635  
H -29.8154188365 -25.5730691719 55.6819285098  
O -25.9618514940 -26.7249542074 57.8285037694  
H -25.2582467517 -27.3108411162 57.5742092806  
H -26.1160909721 -27.0608303981 58.7211358558  
O -30.0146761232 -31.2305687631 59.3074459377  
H -30.4639470980 -30.7049952438 60.0160607029  
H -30.7933404410 -31.5492577988 58.7132917073  
O -22.5717845567 -34.2750513505 62.4708789830  
H -21.9426813141 -35.0126172901 62.5881409994  
H -22.6491403593 -34.2187508554 61.4926816437  
O -26.1678576149 -24.7301101279 55.9656785767  
H -26.1188666013 -25.0875053897 56.8976114482  
H -26.3547536058 -25.5627456573 55.3641604518  
O -26.7549965318 -24.0094586338 59.9524270490  
H -26.5243940588 -24.7335685064 60.5301726014  
H -26.0504205497 -24.0009042768 59.2103545890  
O -23.1435752901 -18.5305340592 54.6188862985  
H -22.9173071915 -19.4994241832 54.7097343453  
H -22.5221790118 -18.2431292661 53.9068297130  
O -20.0079434762 -24.0493637470 57.4990495309  
H -20.6390090836 -24.2462130133 56.7647411771  
H -19.2912211931 -23.5285293959 57.0487313710  
O -27.3587672093 -26.8541431144 54.9560246009  
H -28.3773706534 -26.7297040444 55.0279826574  
H -27.1686764819 -27.7452888987 55.2340116199  
O -25.9827287481 -30.1228709446 62.0774709213  
H -26.0785220770 -31.0787465376 62.2012964089  
H -25.5250796046 -29.7140688790 62.8466777318  
O -29.5987529914 -32.3862878040 55.8870770067  
H -29.5709377418 -32.2898125081 54.9492210027  
H -28.6549997491 -32.2094550023 56.1334473046  
O -26.8244960748 -29.3929329732 55.8102363680  
H -26.9730627414 -29.8046266442 54.9060781857  
H -27.7019721794 -29.4777827452 56.2531105909  
O -28.6270615291 -25.3361676658 58.3200437302  
H -28.0542889519 -26.1320031549 58.1435503881  
H -27.9964085370 -24.7583634646 58.8834617051  
O -24.4019394068 -32.8628736649 58.5507257310  
H -25.1237491120 -33.3976589403 58.9277251147  
H -24.7733575821 -32.3445722653 57.8389893149  
O -21.0219156560 -24.9426978181 59.8586174359  
H -20.5699835483 -24.6019331337 59.0463478507  
H -20.8710603060 -24.3056223637 60.5403379775  
O -27.8156515135 -22.5067226629 56.3993479315  
H -27.3682922058 -21.6718477433 56.1292851033  
H -27.1871198736 -23.3159385298 56.1804321535  
O -22.0483131945 -21.6535335880 57.7431786435  
H -21.4518043076 -22.4713376902 57.7820792168  
H -22.0233980392 -21.2625257793 58.6484574184  
O -35.1838978906 -36.4469549481 62.7980119939  
H -34.4811807518 -36.0715182530 62.2517230780  
H -31.5929087119 -22.2965612807 62.3542573053  
O -25.2330460476 -34.6670777784 62.8647672988  
H -25.3724743089 -35.5568368715 63.2312010947  
H -24.2009390148 -34.6147123868 62.8866188554  
O -23.2794520828 -26.2491512828 59.2205199652  
H -22.8914795212 -27.1152595333 59.0891704984  
H -22.5406135677 -25.6865818563 59.6050433281  
O -18.0461118466 -26.9307153236 54.8954325556  
H -18.3676584209 -26.8157690414 55.8336887713  
H -17.0603083679 -27.0440434199 54.9286501233  
O -31.7132390533 -32.2861784430 57.4609493808  
H -31.0809643344 -32.6189719622 56.7626600765  
H -32.3739278137 -33.0126891904 57.5477953110  
O -24.5482376261 -23.8977862215 58.1983793855  
H -24.1337494075 -23.3842681696 57.4250103738  
H -23.9535520652 -24.6529496110 58.3524608746  
O -14.4762959498 -19.3967126964 54.2464493277  
H -14.3643699537 -18.7537173959 53.5530426056  
H -15.0751678121 -20.0604291008 53.8676089703  
O -25.6491065023 -16.4674355190 53.0931994082  
H -29.9344722181 -30.6283752839 53.0032318271  
H -26.3013703060 -17.1074355365 52.7691080060  
O -25.2799118830 -35.2961733349 60.1888720977  
H -25.3473755206 -34.8748745091 61.0819844382  
H -24.3294113981 -35.1345975221 59.9586703509  
O -24.8077146577 -27.7293669419 63.2907525897  
H -24.2070570698 -27.0248002053 63.5310396704  
H -25.4487544852 -27.2813377508 62.7324573240  
O -29.2817902306 -20.8921545352 58.2088649310  
H -28.9030839610 -21.4824938774 57.5097752033  
H -28.5297834013 -20.7802758172 58.8647317994  
O -19.2266311579 -20.6076946112 54.8582128712  
H -20.1438818651 -20.8847060922 54.8189120862  
H -19.3709199132 -20.0377110147 55.6566351329  
O -30.6489333370 -25.8155716572 60.2957286109  
H -31.0062717347 -24.9726425402 60.6624825762  
H -29.9759247272 -25.6377721001 59.6529886850  
O -26.7171329957 -32.6669491264 61.7583421436  
H -27.3540790540 -32.9641428540 61.0052238418  
H -26.1503697659 -33.4326112192 62.0660248678  
O -23.4526623837 -31.3038365845 53.6812704215  
H -23.5042272595 -31.0469622138 54.6282512513  
H -23.7777276508 -30.5578097098 53.1603549248  
O -22.6513197528 -34.7411356429 59.7093384867  
H -18.2533902224 -20.3933370450 59.2971204769  
H -22.6349453790 -33.9536243086 59.1448799614  

