&CONTROL
   calculation      = 'scf'
   tprnfor          = .true.
   outdir           = './'
   disk_io          = 'none'
   pseudo_dir       = '/scratch/zhouwq/DFT-feldspar-surface/script-dft'
/
&SYSTEM
   tot_charge       = 0
   ecutwfc          = 110
   input_dft        = 'SCAN'
   ntyp             = 5
   nat              = 493
   ibrav            = 0
/
&ELECTRONS
   electron_maxstep = 25
   mixing_beta      = 0.5
/
&IONS
/
&CELL
/
&FCP
/
&RISM
/
ATOMIC_SPECIES
K 39.0983 K_ONCV_PBE_sr.upf
Al 26.9815385 Al_ONCV_PBE_sr.upf
Si 28.085 Si_ONCV_PBE_sr.upf
O 15.999 O_ONCV_PBE_sr.upf
H 1.008 H_ONCV_PBE_sr.upf

K_POINTS gamma

CELL_PARAMETERS angstrom
14.38000000000000 0.00000000000000 0.00000000000000
3.79226300000000 15.03099300000000 0.00000000000000
-16.02692595000000 -16.61449229999999 28.01481620000001

ATOMIC_POSITIONS angstrom
K -13.5255881479 -13.0937268711 39.6209543400  
Al -13.4083854321 -8.8392527832 40.1585986840  
Si -15.1729202000 -12.2495053255 42.7943126345  
Si -21.0681965556 -23.9639193139 40.5921079542  
Si -17.3835850911 -11.7448411426 40.5905871498  
Si -19.0154908942 -24.3270541754 42.7757428134  
Si -14.1619514875 -10.3376342249 37.5697094978  
Si -19.1934391420 -21.9347391330 38.8451840583  
O -22.5729556324 -23.5505553408 40.8724962432  
O -17.3709730459 -12.8648061645 39.4261313039  
O -18.7018596410 -11.6943596393 41.4604071717  
O -17.7895957063 -24.1197102707 41.7621667633  
O -13.2692451530 -9.4519670890 36.5580544637  
O -20.3970479791 -22.7762359324 39.5916588465  
O -15.7236940039 -7.1041587424 37.2525817785  
O -13.6961843322 -10.2566597697 39.0966770654  
O -15.2379337284 -10.7246785175 43.4171220198  
O -17.0844471347 -10.3777672513 39.8443524886  
O -15.6819315538 -9.8171109240 37.3459911799  
O -17.7209151699 -22.4293947019 39.2831756990  
O -15.9941664133 -12.1551238166 41.3436254093  
O -20.3949009465 -24.0149103599 42.0571227568  
Al -15.1265122714 -16.4614665426 40.2526484241  
Si -17.1983594343 -14.3928975650 38.8140475911  
Si -15.7649797119 -17.6721315612 37.5546615394  
O -20.6328373775 -16.0917667001 40.4951766901  
O -14.0933410332 -11.9344709718 37.2307302218  
O -15.6726174012 -19.1822414840 36.8467671552  
O -18.3813389915 -15.3206681637 39.3803470900  
O -14.7098780534 -16.7580207638 36.7260633186  
O -15.3957083560 -17.7015937965 39.0822694456  
O -17.2758850149 -14.2611398382 37.1813441030  
O -15.8184676852 -15.0191711201 39.3320815638  
O -17.2331525041 -17.1111084032 37.3302228405  
O -26.3366754972 -27.7775882379 52.4177221685  
Al -23.0655415922 -16.0330927456 49.5853442083  
Si -21.0679389728 -17.9023004972 51.1523329419  
Si -26.0795711172 -29.3431993173 52.0279160117  
O -17.4959035307 -16.3600803892 49.5221908084  
O -24.5041172306 -20.5297766167 52.7851164724  
O -19.7460990322 -17.0900834907 50.6218123654  
O -27.0106781213 -30.3726053173 52.9538457082  
O -26.3199995506 -29.5913274686 50.5068715767  
O -21.2078633858 -17.8201986526 52.7638252121  
O -22.3176868322 -17.4290192205 50.3014829528  
O -24.5731810163 -29.8316668019 52.4783142138  
K -24.6064404751 -19.1859213864 50.3831261314  
K -19.3511441017 -24.5465880576 46.4275141263  
K -26.6629219130 -26.6688845020 49.9881172230  
Al -24.9224900872 -23.4810773671 49.6073558496  
Si -22.8440118856 -20.0552868422 47.1286849546  
Si -20.9169258625 -23.4718064491 49.4191763271  
Si -20.8880452918 -20.4561875456 49.4916946799  
Si -22.9476372170 -23.0078916990 47.0696937559  
Si -24.1073156052 -22.0560004773 52.3161484492  
Si -23.0717942065 -25.4549385007 50.9787211238  
O -19.4549337368 -23.9836105574 49.1696043359  
O -20.7998244277 -19.5374199953 50.8219181954  
O -22.6993142069 -27.0574416642 50.8401678471  
O -22.9890446033 -24.0996833260 45.8929113909  
O -19.5657704982 -20.3212967752 48.6093880543  
O -24.1913840724 -23.1701974677 48.0390063964  
O -24.7707576909 -23.3490781263 53.1945330006  
O -21.7917695950 -24.6448425289 50.2265633300  
O -23.1179894865 -25.2225088291 52.5966968229  
O -24.3700727208 -22.2351685598 50.7055366447  
O -22.8119556313 -21.5148232055 46.4078237126  
O -20.9656095353 -21.9699317676 50.2095143133  
O -22.4946826630 -22.1713558191 52.6681746253  
O -24.4069797336 -25.0786685148 50.1896638149  
O -22.2462870588 -20.1565387770 48.6411648601  
O -21.5040472293 -23.4028638062 47.8674756790  
K -17.0805753285 -16.8773842721 46.4027010034  
Al -19.3764965891 -12.2182280094 43.0135485818  
Al -20.7949360192 -27.8639958501 47.0398379661  
Si -19.0668048379 -16.0082374282 49.6285670676  
Si -24.8109785220 -27.7096427776 47.3151035458  
Si -20.9647663344 -15.6620609292 47.1692664169  
Si -22.8479329630 -28.1599205337 49.6094369503  
Si -17.1904298044 -14.0822738931 44.3247220223  
Si -22.8504150430 -25.7604838455 45.7398704521  
O -13.7366805303 -12.8403243570 42.5309733622  
O -26.4082452990 -27.3656577402 47.4222802284  
O -20.9702531602 -16.6284573634 45.8652167440  
O -22.3689874137 -15.7715544202 47.9732916419  
O -21.6437324983 -28.2282088246 48.5652847293  
O -15.8757583382 -13.4000589599 43.6868646786  
O -24.0551438016 -26.4085691084 46.6651598100  
O -23.0558262646 -26.0138724925 44.1802456131  
O -17.1691448431 -14.0955513890 45.9314117525  
O -23.1359696057 -29.6121028444 50.3679180883  
O -20.7478379445 -14.1049632765 46.5869584516  
O -18.6432791997 -13.5610049661 43.7828354347  
O -21.4301423238 -26.3066230165 46.2482993449  
O -19.6401418968 -15.9069067014 48.0886326423  
O -24.2454535757 -27.7633191355 48.7890830896  
K -20.8855827058 -15.3337641710 43.3689365359  
K -15.3811131041 -20.6195503388 39.2231439500  
K -22.7253798133 -22.9650850980 43.3591713714  
Al -18.8582561355 -20.1915966916 47.0621697767  
Al -20.9796339664 -19.7733066278 42.8583465001  
Si -19.0377862936 -16.3746102053 40.4386668037  
Si -16.9820767151 -19.9026625722 42.6523175375  
Si -16.9624811239 -16.8294262376 42.7317995732  
Si -19.0155918824 -19.3131779348 40.4192165170  
Si -20.8043289446 -18.2775781269 45.5411253417  
Si -18.9626720221 -21.7419141910 44.3362481181  
O -24.4159886056 -19.4956448151 47.3652900880  
O -15.4276202378 -20.2496031195 42.4957547361  
O -16.8143884968 -15.7029368578 43.9281122673  
O -18.8553348289 -23.3445936673 44.1266972929  
O -19.3214061837 -20.3526870090 39.1562285604  
O -15.6717650535 -16.6799721130 41.8515740482  
O -20.2154404494 -19.3580924172 41.3880489036  
O -22.1181234645 -19.0283910851 46.1560905785  
O -17.7034655574 -20.9989720799 43.5525536455  
O -18.9924556752 -21.5136176194 45.8934716872  
O -20.7841846091 -18.3554835975 43.9219490077  
O -18.8213836067 -17.8703719618 39.7330136048  
O -17.0718196638 -18.3460073951 43.3300359625  
O -19.5198456279 -18.7441450207 46.3344248942  
O -20.2982393721 -21.1021060930 43.6909468375  
O -18.4083215456 -16.4617964837 41.9036816063  
O -17.6168989226 -19.7279616556 41.1476817806  
H -24.5270453238 -20.5071391596 53.7477855993  
H -27.9741307602 -30.5957284891 52.9647314654  
H -21.0700198601 -16.8794762800 53.0095551713  
H -23.9773087105 -29.7740071345 51.7344007802  
H -26.8095639967 -27.6523806064 53.2716137663  
H -25.5891927577 -23.1434009718 53.7409019588  
H -23.7186618992 -24.5263456179 53.0349285906  
H -21.8694266700 -21.9875004468 51.9758884959  
H -13.4886132216 -8.5684596371 36.3019190013  
H -15.8024846945 -8.0912483815 37.1575715304  
H -16.3658134296 -10.0346148846 37.9980960587  
H -14.3159436910 -12.1053289151 36.3338558918  
H -15.9525591727 -19.2410863004 35.9543751957  
H -14.6293361052 -15.8419904008 37.0243010476  
H -17.2950348580 -15.1745062884 36.8602142670  
H -17.8906913385 -17.2329304463 37.9961750427  
K -6.1567630829 -13.2137928991 39.5186602397  
Al -9.8676843955 -23.8555459831 40.2879470926  
Si -8.2204612621 -12.1102582662 42.6237424250  
Si -14.0442225049 -23.8721649349 40.4193766017  
Si -10.0876382024 -11.7572702905 40.3349319414  
Si -12.0152741516 -24.2225175634 42.6809726924  
Si -6.6263640593 -10.2699329606 37.6708830055  
Si -12.0057300941 -21.9343327819 39.0144735904  
O -15.5119922530 -23.3546878106 40.4736453028  
O -10.2485395871 -12.9843458246 39.2661266822  
O -11.3374671110 -11.8539301939 41.3734011568  
O -10.7168650462 -24.1454426313 41.7572841811  
O -5.7122413535 -9.2476197045 36.7933789198  
O -13.2168395274 -22.8591968349 39.4787991584  
O -11.9984815310 -21.9167628191 37.4109855535  
O -6.2561132767 -10.2757534740 39.2425942366  
O -8.4290076841 -10.6851639908 43.3564499321  
O -10.0410893020 -10.2779541024 39.5986225294  
O -8.1780529291 -9.8999878385 37.4141872468  
O -10.6645259111 -22.5036489801 39.6059864239  
O -8.7192913710 -11.9362638072 41.1363157694  
O -13.4647540997 -23.8086905477 41.9495458625  
Al -7.8432311737 -16.4457417316 39.9944318611  
Si -9.9410692346 -14.5449390601 38.7245602639  
Si -8.8102697320 -18.1125728579 37.4510067195  
O -13.4510788710 -15.9745277579 40.6076361666  
O -6.2386499115 -11.7642728660 37.1491670855  
O -9.0336886400 -19.7686311159 37.5801950433  
O -11.2134008283 -15.3455596230 39.2973431917  
O -8.2167890741 -17.6288286453 35.9861520015  
O -8.0221861348 -17.7281434078 38.8101255168  
O -9.9461220934 -14.5532277521 37.0980200354  
O -8.5152720872 -15.0114354706 39.3099898802  
O -10.2306376008 -17.3424956545 37.4193099560  
O -19.2474740058 -28.0921250689 52.7410931898  
Al -15.8306749461 -15.9603646296 49.7171739292  
Si -13.7766368116 -17.9526325715 50.9891266270  
Si -18.7045958380 -29.5424119365 52.3249531057  
O -24.7792913510 -16.4114505770 49.2942302469  
O -17.7163398405 -20.3520228731 52.5017666171  
O -12.6260081088 -16.8936063892 50.6074047457  
O -19.3744575286 -30.6547008671 53.3810316341  
O -19.1820557582 -29.7538206662 50.8199971794  
O -13.9341920754 -17.9638125146 52.6744979696  
O -15.1266539241 -17.4521450038 50.4090598470  
O -17.0828755406 -29.7083014704 52.5702828533  
K -17.4865425665 -19.0588039842 50.1361154948  
K -12.1780804413 -24.3999673000 46.5532606299  
K -19.5780110299 -26.6467109551 50.5625009974  
Al -17.7884238125 -23.5016312304 49.5078632310  
Si -15.6923010492 -20.1949883799 47.0154250548  
Si -13.7109195671 -23.5585558368 49.4876925633  
Si -13.6569284203 -20.4847954960 49.2514075992  
Si -15.7097485781 -23.2018115068 47.1260435576  
Si -17.0999136684 -21.8490042565 52.1170831695  
Si -15.6962312318 -25.4366737451 50.9503060959  
O -26.5730935715 -23.8889938927 49.3473783553  
O -13.4001380789 -19.4991739337 50.5792298448  
O -15.1728145781 -26.8776311154 50.4551642302  
O -15.7423860195 -24.2169335973 45.8375220971  
O -12.2478418419 -20.5780241005 48.4792392224  
O -17.0208234521 -23.1587281180 47.9893801506  
O -17.5901564984 -22.9912979118 53.1116091446  
O -14.5005686088 -24.3641382661 50.5773088288  
O -15.7468936763 -25.4238289853 52.5919743253  
O -17.5681637173 -22.1763204680 50.5986801315  
O -15.3775323009 -21.6975441565 46.4990719711  
O -13.9674076067 -22.0110462639 49.8138650662  
O -15.4196472020 -21.8101778128 52.2759671985  
O -17.0640920044 -24.9590617336 50.2492153100  
O -14.8825368828 -19.7821321801 48.4437804694  
O -14.4821410766 -23.7372320296 48.0184355171  
K -9.9938831468 -16.9040245139 46.5527003335  
Al -12.0809691032 -12.3834126054 42.9343867155  
Al -13.6253451283 -27.8144682370 46.9513111469  
Si -11.8523299246 -15.9017768157 49.5588501965  
Si -17.6869536501 -27.5973816692 47.2325799015  
Si -13.9063361936 -15.4564703670 47.2422650237  
Si -15.5129400215 -28.1451870723 49.4048487497  
Si -10.0394771210 -14.2800056219 44.2345943565  
Si -15.6757069681 -25.8000276510 45.5635371947  
O -21.0217370340 -12.5537052797 42.6471147859  
O -19.2581502220 -27.2097233220 47.4985605708  
O -14.0904314985 -16.6450989929 46.0874942999  
O -15.1887221797 -15.4126524917 48.1841231444  
O -14.3407868157 -28.3897694794 48.4232095900  
O -8.9607438311 -13.3002084132 43.5223776863  
O -17.0650174280 -26.4354182836 46.2703910286  
O -15.7519457450 -26.0416824156 43.9925463445  
O -9.9638615131 -14.1982294971 45.8757823318  
O -15.7282548308 -29.4941796320 50.3041243497  
O -13.7096328695 -14.0301108812 46.4574499585  
O -11.4747979991 -13.8244186424 43.7543403645  
O -14.4347161985 -26.3245157112 46.4227115864  
O -12.6009027337 -15.9199780723 48.0874320073  
O -16.9462365289 -27.7864410249 48.6625361627  
K -13.8085840433 -15.4358307675 43.3995127067  
K -7.8916196293 -20.5914756206 39.7390167797  
K -15.5525962777 -22.9580106012 43.3153081735  
Al -11.6332664731 -20.0916876299 46.9154521822  
Al -13.8747744136 -19.5239093900 42.9306247259  
Si -11.9195305843 -16.3242821717 40.3631068423  
Si -9.8164805224 -19.7640053627 42.5780382534  
Si -9.8048683780 -16.7154354404 42.5492230139  
Si -11.8805394507 -19.2774110265 40.4822098323  
Si -13.7729889104 -18.1862996625 45.5757036291  
Si -11.8224956900 -21.5123645657 44.2447597326  
O -17.1942639739 -19.9009023425 47.4298042076  
O -22.6959924135 -20.2445794077 42.4227561293  
O -9.6527486689 -15.7974218888 43.9154655788  
O -11.9363926836 -23.1538181249 43.9246704470  
O -12.3396017699 -20.4198150911 39.4411792623  
O -8.6269503299 -16.6528356951 41.4748147915  
O -13.1015227579 -19.0400127684 41.4373549801  
O -15.0873734204 -19.0701259235 46.0379480964  
O -10.5463245899 -20.7524902958 43.6298745382  
O -11.6024079196 -21.4502445718 45.8245552393  
O -13.8689049974 -18.1359840528 43.9826210953  
O -11.5369969067 -17.8062938586 39.7117223445  
O -9.8843404675 -18.2052688424 43.1709918489  
O -12.3080121109 -18.6609816691 46.1103063646  
O -13.2062038114 -20.9412816010 43.7256051673  
O -11.2001517698 -16.2473725155 41.8751064938  
O -10.4330922812 -19.8750899060 41.0992561697  
H -18.4832813979 -20.2589694634 53.2130227793  
H -20.1476983293 -31.2941955370 53.1963739742  
H -13.8415856213 -17.0763489434 53.0585410785  
H -16.6018809661 -29.9499235143 51.7302385790  
H -18.8413730992 -27.7527975140 53.5548835792  
H -18.4151624586 -23.4482384736 52.8184941248  
H -16.2372768809 -24.6243221691 52.9444807554  
H -14.8479625890 -21.8810923106 51.4478492317  
H -5.9982568018 -8.3673924586 36.9387357947  
H -8.5195825553 -7.6789234153 36.9962862314  
H -8.7486554141 -10.0056781374 38.1933993488  
H -5.8095389085 -11.8062159293 36.3299338175  
H -8.8911657566 -20.0495506028 36.6632300879  
H -7.8131285739 -16.7539445319 36.1145399021  
H -9.9550402972 -15.4692769900 36.7801719350  
H -10.7823959654 -17.5188236484 38.1628231780  
O -22.4244858392 -31.5919663920 60.2086425537  
H -22.7385010731 -30.7084885407 60.4237162998  
H -22.8657509835 -31.7054566989 59.3316987643  
O -28.0787550364 -29.2542172566 59.4147026626  
H -28.8465270588 -29.8233672725 59.3778031476  
H -27.3980607654 -29.6176116883 60.1108308240  
O -21.0968575135 -25.7403946098 59.2831931111  
H -20.6094627552 -25.1618592034 58.6730304143  
H -20.4223226502 -25.9544461240 59.8995190675  
O -18.9932106232 -21.8651279746 59.2885559474  
H -18.4946840048 -21.2011596251 58.7655593501  
H -19.8619600880 -21.5071973050 59.1165449759  
O -21.1397329947 -28.1388384799 57.7994484029  
H -21.2542672428 -27.3517811872 58.4248991851  
H -21.3196986045 -27.6999149771 56.9505194297  
O -31.5221456300 -22.7948026170 61.0547700453  
H -17.9304561200 -22.7152113103 60.5257702731  
H -31.3951915752 -21.8495375275 61.2791287019  
O -23.2514702856 -25.0107273623 60.5130435423  
H -23.9374325814 -24.6539131587 59.9676350921  
H -22.4561181848 -25.0924636355 60.0169411686  
O -19.9318513520 -24.2310604160 52.7651058894  
H -20.1844421171 -24.1911515099 53.7439435674  
H -20.8055044479 -24.0755953939 52.4158811949  
O -20.4587994626 -24.2844633878 55.4683755680  
H -21.2860747813 -23.9734174982 55.9139712303  
H -20.5983631504 -25.2223514767 55.2623466054  
O -22.6217776714 -23.3969651228 56.7314435670  
H -22.3509532418 -22.7514477023 57.3941140336  
H -23.1997315552 -24.0072452782 57.1887254097  
O -29.3733298430 -23.1721954327 59.1509631787  
H -30.0199718787 -22.9008400469 59.8195567779  
H -29.7874731433 -23.8395445731 58.5998717229  
O -14.4782106189 -20.8866031893 55.5929214366  
H -28.2316254639 -21.4653918191 55.0874541100  
H -28.4044992290 -20.6487715412 56.4135154243  
O -30.7554293471 -33.1271093210 60.1898326057  
H -30.7299998631 -32.1902514353 60.1592564349  
H -30.4212763784 -33.3436762744 61.1439372031  
O -19.7072008119 -31.0164034790 59.4677707287  
H -19.4360519193 -30.7965242246 60.3710484453  
H -20.6678490028 -31.3009788436 59.5687841517  
O -21.7459134646 -21.1479059249 55.0600796325  
H -21.7778713125 -21.7190015359 54.2727832549  
H -20.9942318976 -20.5004799351 54.8370016532  
O -16.7053396639 -22.3487539690 56.0883034294  
H -15.8418758899 -21.8604179805 56.0971080859  
H -17.2134081112 -22.1189323470 55.3124531053  
O -30.2136032531 -33.0688697018 62.9728244470  
H -30.5303995785 -33.7746270789 63.5065467168  
H -29.5257569732 -32.7114808139 63.4168192626  
O -20.1981272227 -28.2179295093 63.2030261938  
H -20.9343375148 -27.7118800664 62.8203438045  
H -19.5217133906 -27.5886633999 62.8782944529  
O -23.4302811334 -29.4984287746 57.7090806100  
H -24.0955080202 -28.9435822995 57.3757843396  
H -22.6738144360 -28.9168258873 57.6065463827  
O -25.7832231091 -35.1629634714 62.0351285276  
H -24.9568855934 -35.2907091825 62.5092993024  
H -26.0638577426 -36.0351441954 61.6913467117  
O -31.4027601537 -28.6612077102 61.2776078976  
H -32.1761809774 -28.2459741322 60.9505549290  
H -30.7961657883 -27.9696245326 61.4651470815  
O -18.6139951134 -30.3758180701 57.0769062719  
H -18.8728353710 -30.6701466362 57.9269558377  
H -18.4480857727 -31.2408184868 56.6987062532  
O -26.4931826507 -25.8596147482 62.2186655949  
H -26.9981336739 -26.2878184739 61.5141329886  
H -25.5626611171 -25.9705450013 61.9939867690  
O -24.8838879942 -21.3021886768 57.8420309235  
H -24.6106110702 -20.4873280888 58.2459245307  
H -24.6438410434 -21.0795568252 56.9332302859  
O -18.0768168297 -32.9784563398 56.8138871689  
H -32.7177839866 -33.4958580860 57.5924589323  
H -18.7128024918 -33.1384040861 56.0997494828  
O -25.9803196550 -25.6112035902 57.1943283729  
H -25.5951501699 -24.8454702273 57.5553993326  
H -26.6905910878 -25.3097376917 56.5508680660  
O -21.0605763757 -29.7056037326 55.1055436771  
H -20.3693355138 -30.0214271617 54.5065068644  
H -20.6298839664 -29.4726303802 55.9115699603  
O -17.6342035441 -17.4279516093 52.8018453198  
H -17.4057487058 -18.2723193395 53.1481084480  
H -18.3390540032 -17.1641398210 53.4106472970  
O -33.6665252769 -30.4222495952 62.0954004036  
H -32.7614589736 -30.1972994712 62.2964667416  
H -19.6948468052 -29.6020646736 62.3918772014  
O -17.8277665092 -26.4647898044 57.7239684838  
H -18.0714078554 -27.1497042204 56.9575631549  
H -18.4968655690 -25.7803991911 57.7361349182  
O -23.2404758402 -22.0624521437 60.7937520006  
H -24.1265900329 -21.7683900019 60.9710457660  
H -23.2111654069 -23.0128701398 60.6133365843  
O -29.3966700054 -36.2868271476 61.4466573028  
H -25.9671802434 -22.1468227440 61.2761671356  
H -29.9362733077 -35.8581467644 62.1456669881  
O -33.3052699187 -33.9548598654 59.2997618739  
H -19.2110477786 -33.0217992771 59.5079519794  
H -32.3234717641 -33.8571195494 59.4557643789  
O -26.1823283134 -31.4107372921 55.5419344711  
H -25.2104987070 -31.3075723892 55.5918008440  
H -26.5246677035 -30.7291478587 54.9155231809  
O -18.6403848050 -26.7997983630 60.4773446622  
H -18.5489110961 -27.0861173325 59.5645419081  
H -32.2162049874 -26.2108290465 60.6399906809  
O -17.9389889395 -18.6347044589 56.2190125575  
H -17.7019872395 -19.4232374403 56.6823776175  
H -17.1679663479 -18.4903617283 55.6323823063  
O -21.5112024460 -26.8585321756 55.1453247161  
H -21.4273464319 -27.7706048393 54.7826529098  
H -22.4772492612 -26.6533621230 55.0730464903  
O -24.2533352492 -26.5721429073 55.4245924124  
H -24.8792987459 -26.3072316926 56.0895040643  
H -24.6274768567 -26.4701230306 54.5356422732  
O -27.5366254488 -22.7705257438 53.9686223933  
H -28.1078548806 -22.4710247763 53.2526437336  
H -27.8509055994 -23.6671749655 54.1889789333  
O -25.9721474490 -28.3665540132 57.3685805297  
H -26.1050334731 -27.4093032093 57.5826137255  
H -26.7115065731 -28.8407992080 57.8317855050  
O -30.4955845107 -30.2909063665 59.1556056339  
H -30.9500794355 -29.6520999627 59.6995733222  
H -30.9068536563 -30.2999028171 58.2620130395  
O -20.6788670822 -32.8607050786 62.1047653565  
H -21.3291294264 -32.5775363037 61.4710702140  
H -20.2587756896 -32.0826151215 62.4759216500  
O -27.8852107592 -25.0894496148 55.4471643500  
H -28.6624194939 -25.1693809785 56.0939063926  
H -27.8612343546 -26.0511347697 55.2032753644  
O -31.5545253728 -35.5407543288 63.0727973197  
H -32.2736560950 -35.5433664333 62.4427841245  
H -31.9979588702 -35.6052787969 63.9230069702  
O -24.1911906089 -20.5463226054 55.3294220797  
H -23.2397849791 -20.8427172905 55.3663215947  
H -24.1697134789 -19.5896335453 55.6134923159  
O -19.3590255430 -24.2963491345 57.9301575310  
H -19.7567442511 -24.0115913960 57.0809884308  
H -19.3312272752 -23.4625625786 58.4979778342  
O -27.3209976964 -27.8951984244 54.8879886187  
H -28.0231842216 -28.5861634516 54.8314787323  
H -26.7596497599 -28.3504523543 55.5230444808  
O -23.6250041865 -29.1304930896 60.4435667981  
H -23.4422714794 -28.3917116394 61.0400422562  
H -23.4990186944 -28.7717258175 59.5924766820  
O -25.1210526580 -17.8023317925 53.2159843455  
H -24.2501357562 -17.7193401807 53.6121138466  
H -25.4999661721 -18.5671744558 53.5957852109  
O -28.0272604856 -33.0251329221 56.2391832252  
H -28.0756019574 -33.1263912907 57.1953689232  
H -27.2179093483 -32.4181965131 56.0273111724  
O -28.2195272512 -26.6518033204 60.0501587364  
H -28.2005209167 -27.5968125238 59.6633141458  
H -27.8233459916 -26.0969759819 59.3935714870  
O -23.5932213765 -32.1259060641 57.8548376966  
H -22.8283949914 -32.5875656849 57.4147649553  
H -23.4623815100 -31.1722493118 57.5030516475  
O -21.7090785243 -21.6328051998 58.5884256694  
H -21.7901845272 -20.7111159507 58.3514203243  
H -22.3946802391 -21.6924729720 59.3160905096  
O -30.0315870305 -24.9382247115 57.1215698931  
H -15.9701391716 -24.2133346263 56.5570313255  
H -16.4317853461 -25.5500225557 57.2083357810  
O -28.5055077634 -33.7528861077 58.7495508837  
H -27.7740640988 -33.6178686053 59.3419441828  
H -29.3518285514 -33.4265299293 59.2115552240  
O -34.2792546747 -35.5170522568 61.6648526998  
H -33.9898066289 -35.0485460502 60.8698722584  
H -34.7540081114 -34.8431115654 62.1148506903  
O -26.3812340576 -33.1787661084 60.4994363459  
H -26.1742931385 -34.0093809113 61.0441244151  
H -25.7350364656 -33.1456862058 59.7808162892  
O -24.9490933902 -23.7031713240 58.8358365176  
H -24.6863576724 -22.7948414106 58.5805014785  
H -25.8617135568 -23.5365557920 59.1593676235  
O -18.0298451138 -28.2299655275 55.6096502840  
H -17.0994242650 -28.2573064694 55.3595980388  
H -18.1554377973 -29.0751112426 56.1005499062  
O -30.1145329782 -31.3909168981 56.0907847416  
H -29.3382627334 -31.9506919553 56.2470273737  
H -30.8424659385 -32.0291053581 56.2168514145  
O -27.0512888273 -23.3977900903 60.4404451472  
H -27.9653356051 -23.4014491711 60.0671277107  
H -27.0618056443 -24.0612988574 61.2395077475  
O -15.6433402444 -18.7253682314 54.5172325369  
H -15.2527731955 -19.6502016830 54.7275037430  
H -15.0684127693 -18.5084577434 53.7479456840  
O -29.8900904562 -29.3151703089 54.6883630427  
H -15.9861568444 -29.7409803965 53.9032278081  
H -30.0530005912 -30.0212367740 55.3716844310  
O -25.5272452794 -34.0849479707 57.6423253051  
H -25.0128902903 -33.3381757578 57.4117233466  
H -22.5885169839 -18.9297929028 57.2156196332  
O -22.6854555969 -27.2759983555 62.1087674731  
H -22.8540308289 -27.2395160947 63.0612712239  
H -22.7458584421 -26.3876386776 61.6553276623  
O -27.9164264975 -20.9018138666 58.1388278905  
H -26.9680685958 -20.7725069230 58.2235126778  
H -28.0449899255 -21.8292687920 58.3265271591  
O -19.6785638814 -19.5374301856 54.0681950543  
H -20.0994816003 -18.7852893363 53.6160359209  
H -19.2998693528 -19.1291860888 54.9113609796  
O -30.6678660272 -25.6854048531 61.2584777802  
H -30.7514012553 -24.7105963062 61.3874259771  
H -29.7103466199 -25.7357223834 61.0542897913  
O -26.2743431583 -29.9415595810 61.3124263120  
H -25.4852534840 -29.7901264188 60.7654170151  
H -26.3067001589 -30.9441608713 61.4851576645  
O -23.1871610357 -31.3365546669 54.5225953731  
H -22.4198427819 -30.8924112917 54.9660298924  
H -23.4778020751 -30.6981236525 53.8740123569  
O -17.0705252014 -20.4258307561 57.9536899766  
H -16.8964397519 -21.2997383965 57.5277046857  
H -16.3799503524 -20.1563192164 58.5831428755  

