&CONTROL
   calculation      = 'scf'
   tprnfor          = .true.
   outdir           = './'
   disk_io          = 'none'
   pseudo_dir       = '/scratch/zhouwq/DFT-feldspar-surface/script-dft'
/
&SYSTEM
   tot_charge       = 0
   ecutwfc          = 110
   input_dft        = 'SCAN'
   ntyp             = 5
   nat              = 493
   ibrav            = 0
/
&ELECTRONS
   electron_maxstep = 25
   mixing_beta      = 0.5
/
&IONS
/
&CELL
/
&FCP
/
&RISM
/
ATOMIC_SPECIES
K 39.0983 K_ONCV_PBE_sr.upf
Al 26.9815385 Al_ONCV_PBE_sr.upf
Si 28.085 Si_ONCV_PBE_sr.upf
O 15.999 O_ONCV_PBE_sr.upf
H 1.008 H_ONCV_PBE_sr.upf

K_POINTS gamma

CELL_PARAMETERS angstrom
14.38000000000000 0.00000000000000 0.00000000000000
3.79226300000000 15.03099300000000 0.00000000000000
-16.02692595000000 -16.61449229999999 28.01481620000001

ATOMIC_POSITIONS angstrom
K -13.3617648516 -13.2236654706 39.6127099798  
Al -16.9137041569 -23.7665599925 40.3101988609  
Si -15.2495908354 -12.1033689725 42.7020238257  
Si -20.9345285828 -23.7763149167 40.3430162170  
Si -17.2236077319 -11.6877708249 40.3497397729  
Si -18.9523989646 -24.1035248847 42.7243556363  
Si -13.8591855633 -10.1103287080 37.7476436019  
Si -18.8880660690 -21.8149069891 38.8605521860  
O -22.4565373778 -23.2195753738 40.5692958895  
O -17.2967267314 -12.7812695551 39.2051344253  
O -18.4823027821 -11.4779062699 41.3068059366  
O -17.6409833313 -23.8892855770 41.9227316813  
O -12.9358895414 -9.1046786691 36.8395633453  
O -20.1596825938 -22.7096036663 39.3572148561  
O -18.8590724556 -22.0239150805 37.2373737354  
O -13.3550537529 -10.1131846188 39.2949419218  
O -19.2445430240 -25.5898177994 43.3485257412  
O -17.0902989004 -10.2203391862 39.5742896604  
O -15.4354416737 -9.6792359015 37.5420148510  
O -17.4713894347 -22.2158473705 39.5109761758  
O -15.8694715735 -11.8766222301 41.2183591597  
O -20.3157425983 -23.8556672180 41.8376466824  
Al -15.1120107639 -16.3518256567 40.2681766366  
Si -17.1383358233 -14.3310114008 38.8053229769  
Si -15.7219029821 -17.8566898635 37.7234708176  
O -20.6804743251 -15.9783140199 40.4365056607  
O -13.4844763458 -11.6882802275 37.2717919381  
O -15.6253281906 -19.4276676322 37.2613063926  
O -18.5463868591 -15.1223127491 39.3953150061  
O -14.7513777272 -16.8386685494 36.8330799164  
O -15.3547875508 -17.8173126679 39.2542003748  
O -17.2277254055 -14.4009677141 37.2003941780  
O -15.8157608932 -14.9866250434 39.4691140362  
O -17.2138857898 -17.2877852819 37.3348652957  
O -26.7969715039 -28.0712686164 52.6431213754  
Al -22.9665176825 -15.9792010437 49.6013526747  
Si -20.9975944360 -17.8161275920 50.9412613124  
Si -26.0957680924 -29.4761899498 52.1440574354  
O -17.3874082348 -16.2259895864 49.2964714322  
O -24.4431141554 -20.5003073456 52.8577148675  
O -19.7406397451 -16.9590569824 50.3864078670  
O -26.6797555146 -30.7547504582 53.0591814171  
O -26.3946412851 -29.5987366326 50.5582587538  
O -20.9134717711 -17.6085103149 52.5631590857  
O -22.4046167938 -17.4280406700 50.3368616635  
O -24.4770781239 -29.4150580444 52.4296484760  
K -24.9097532345 -18.8607865440 50.5157562755  
K -19.2803364967 -24.1863949255 46.5326097082  
K -26.7245281307 -26.5761016174 50.1486821410  
Al -24.9629316045 -23.3334345628 49.5797412451  
Si -22.8089129399 -20.0873559728 46.8389317128  
Si -21.0293628092 -23.3712774210 49.4327835236  
Si -20.8970073884 -20.3487104835 49.3386537411  
Si -22.9839218516 -22.9837289953 47.1043520857  
Si -24.2183691991 -22.0034540818 52.2898945643  
Si -22.9486171801 -25.3765092282 51.0147401732  
O -19.4822454587 -23.6941244703 49.1988197871  
O -20.8424295562 -19.4288618916 50.6947309299  
O -22.5642153423 -26.9300828653 50.7282686670  
O -23.2734867833 -24.1128411161 46.0333056412  
O -19.5316542296 -20.3242959098 48.5590414274  
O -24.1663849481 -22.8383633454 48.1500251109  
O -24.9291964225 -23.1366944633 53.2528838606  
O -21.7432230487 -24.4266527178 50.4518024522  
O -23.1727114644 -25.2309984741 52.6031802517  
O -24.7450435285 -22.0909137450 50.7398748051  
O -22.8245038902 -21.5550571754 46.1834650560  
O -21.1646019098 -21.8234778706 50.0245364840  
O -22.5736361901 -22.3765006801 52.3478452127  
O -24.3258297427 -24.9501738028 50.2520968339  
O -22.1308089266 -20.0421994608 48.2945015202  
O -21.6329487932 -23.3040508302 47.9186227291  
K -17.3953387090 -16.6093680391 46.4847443937  
Al -19.2379592772 -11.9718626798 42.7850277240  
Al -20.8175057065 -27.3685137084 46.9960548105  
Si -18.9379911425 -15.8816819830 49.5077831886  
Si -24.7558604203 -27.6481871888 47.1357286798  
Si -20.8516818886 -15.6284465227 47.1270841080  
Si -22.7310650729 -27.9827267919 49.4923350186  
Si -17.3549995381 -13.9844546315 44.2230682607  
Si -22.7511692483 -25.6296179927 45.4817339314  
O -13.7197584627 -12.5859883515 42.5538654691  
O -26.2474952506 -27.0961199069 47.3481610289  
O -21.0610942390 -16.6059254859 45.8733010195  
O -22.0460823414 -15.8419630997 48.1870046683  
O -21.5519113527 -27.7073467754 48.4808400691  
O -15.9675252302 -13.2763925434 43.5985779864  
O -23.8624205306 -26.6409008322 46.1950711942  
O -22.8491493689 -25.7255237084 43.8934539375  
O -17.4570599764 -13.6499308215 45.8652167440  
O -22.8417369043 -29.4718888404 50.2408108651  
O -21.0102082125 -14.1513703088 46.5016333257  
O -18.6499114595 -13.4650606514 43.4755529221  
O -21.3616656480 -25.9468767110 46.1284759739  
O -19.4883393656 -15.7765710649 47.9443163177  
O -24.0734795573 -27.6660049145 48.6736620469  
K -20.7825279313 -15.2274205276 43.4170419774  
K -15.2715307209 -20.6068601554 39.7200467470  
K -22.6435561404 -22.8780594854 43.2190972904  
Al -18.8677566784 -20.0099793610 46.9028054937  
Al -21.0240815724 -19.5712226179 42.8707530615  
Si -19.1279241419 -16.2735865462 40.3450172753  
Si -17.0406598705 -19.6569718347 42.6768104911  
Si -17.2091901651 -16.6339004906 42.6755298138  
Si -18.9749962827 -19.2280517574 40.3992859764  
Si -20.8023496643 -18.1216779194 45.4308270082  
Si -19.0527095645 -21.4979628495 44.2867019146  
O -24.3146378182 -19.5615416521 47.1112357262  
O -15.5211097470 -19.9791749283 42.4429267970  
O -17.1672665729 -15.5843513400 43.9005777050  
O -19.0314002520 -23.1282184619 44.0212815417  
O -19.2671811175 -20.2796463131 39.2000917583  
O -15.9081380117 -16.6065528391 41.7829777697  
O -20.2908240147 -19.1617138885 41.3324194828  
O -22.1102252498 -18.9505631070 45.9354939115  
O -17.7196973384 -20.7840005001 43.6234711517  
O -18.9395462816 -21.2943361924 45.8460866266  
O -20.8302348100 -18.1934414488 43.8503111205  
O -18.6770933414 -17.7359220385 39.7659910456  
O -17.2341371790 -18.1746333799 43.3101054219  
O -19.4943795076 -18.6292271219 46.0846928183  
O -20.4219708560 -21.0213985335 43.5915342612  
O -18.5197579952 -16.2521818732 41.8629400593  
O -17.6697331688 -19.7009583742 41.1884233276  
H -24.1811052019 -20.2301531256 53.7727588069  
H -27.6585602822 -30.8310007579 52.9708947250  
H -21.6721259441 -17.1714519859 52.9290325853  
H -23.8061423511 -29.4301645702 51.7297583250  
H -27.2776445512 -28.1598314194 53.5238271544  
H -25.8450971634 -23.3542017926 52.9469620677  
H -23.8393863087 -24.4579257773 52.7181210405  
H -22.2013910038 -22.2755210880 51.4584948618  
H -13.2910683487 -8.2097419306 36.5963947407  
H -15.1813592257 -7.9215960754 37.0746476744  
H -16.0412884754 -9.7894352862 38.2822463373  
H -13.0957434480 -11.6997489610 36.3627511736  
H -16.1553030326 -19.5802402752 36.4912191165  
H -13.9549081302 -17.2228670689 36.4379909657  
H -16.9904178264 -15.2858265257 36.9270496142  
H -17.6856338892 -17.2368922767 38.1675456755  
K -6.7009298909 -13.3204634483 39.4572677711  
Al -9.6379906352 -23.7531201384 40.1906956592  
Si -7.9963589153 -12.1093686436 42.6661648609  
Si -13.7522038897 -23.7839225847 40.3442168520  
Si -10.0516131614 -11.7679980206 40.4284213852  
Si -11.7167307051 -24.1083370672 42.5999698524  
Si -6.7563707730 -10.2624441021 37.6996182027  
Si -11.8145601133 -21.8383937908 38.8812831500  
O -15.2467954158 -23.4397909305 40.7179345001  
O -10.1252682028 -12.7344571658 39.1290141675  
O -11.2762486352 -11.8618518762 41.3637960770  
O -10.4140638332 -24.0977616971 41.7123003905  
O -5.9874564896 -9.2935688088 36.5903915658  
O -13.1317470553 -22.6169597945 39.4081217792  
O -7.9426558208 -7.1352792588 37.2360930581  
O -6.0770810819 -10.0828781427 39.1394196707  
O -11.9746502173 -25.6413914731 43.2486329109  
O -9.8661608286 -10.2586501845 39.6293587849  
O -8.3729194261 -10.0401468894 37.4955102561  
O -10.4266781953 -22.3659390021 39.5205812557  
O -8.7019681782 -12.2814816035 41.1576070297  
O -13.0257388638 -23.6511692625 41.7974654317  
Al -7.9903531021 -16.3264932503 40.1040098136  
Si -10.0357487093 -14.3557976422 38.7051099773  
Si -8.7671067568 -17.9758676648 37.6251788339  
O -13.4389331662 -15.9834886716 40.5231915063  
O -6.3893292560 -11.8438582781 37.3094918765  
O -8.7281768879 -19.6327475121 37.5573029364  
O -11.2883149723 -15.2677049533 39.3218361453  
O -7.8748378620 -17.4589749498 36.3403393206  
O -8.2429936500 -17.6758903095 39.0888329169  
O -10.3592803884 -14.3627339648 37.0876945745  
O -8.6543007706 -14.9357733607 39.2058548062  
O -10.2853436159 -17.3761987769 37.4295553745  
O -19.2369585426 -28.0260356684 52.5412274868  
Al -15.7247048478 -15.8944375712 49.6412137561  
Si -13.8524313318 -17.8668025224 50.9394203388  
Si -18.7603744332 -29.5773479794 52.2454710700  
O -24.7265781523 -16.2390205463 49.2594918748  
O -17.3568145188 -20.3576403375 52.4636664671  
O -12.6836535309 -16.9635620071 50.2420115001  
O -19.4872718385 -30.6375755604 53.2636895754  
O -19.1477599824 -29.6202231998 50.6820041991  
O -13.7241490790 -17.7181158979 52.5884524627  
O -15.2647903882 -17.3897798708 50.3239748480  
O -17.1178626338 -29.8606375998 52.3456040274  
K -17.3942024650 -19.2056063191 50.2943591852  
K -12.1440012128 -24.3982386536 46.3452306090  
K -19.5899421708 -26.5368348081 50.4339530122  
Al -17.7966052488 -23.5028495798 49.5089037813  
Si -15.6999188569 -19.9994354410 47.0215082721  
Si -13.7223173348 -23.4445582607 49.3468981013  
Si -13.5936320704 -20.4391805634 49.3583441548  
Si -15.7495011148 -23.0400110410 47.0286320396  
Si -16.9949247519 -21.9014332670 52.0852263214  
Si -15.7092478604 -25.3800535974 50.8648208854  
O -26.5571274820 -23.8790423872 49.1884142840  
O -13.4575622467 -19.4820781768 50.6655955210  
O -15.4376691726 -27.0298067857 50.6166896562  
O -15.7983869871 -24.0314944846 45.7650837867  
O -12.3251976387 -20.4866608300 48.4588284278  
O -16.9737259292 -23.1500210511 48.0373255075  
O -17.6364877748 -22.9746284108 53.2806585498  
O -14.3856898978 -24.6213460839 50.2816324544  
O -15.5829558667 -25.2343245845 52.5410674021  
O -17.6324744925 -22.1213666696 50.6224527041  
O -15.6549207450 -21.4977470854 46.3536350538  
O -13.9210586732 -21.9181872433 49.9359296225  
O -15.3786979215 -22.2066797451 52.2278617570  
O -17.1576789314 -24.9070922570 50.3648764797  
O -14.8809429900 -19.9320211054 48.4923661649  
O -14.4347343484 -23.5016114851 47.8242528197  
K -9.9337107226 -16.7915793231 46.3826904204  
Al -12.0555158580 -12.0514879389 42.9001285974  
Al -13.5598159328 -27.5451048700 46.9087286263  
Si -11.8212387504 -15.8958883592 49.3468981013  
Si -17.6558426252 -27.5459819559 47.0768975658  
Si -13.7093286430 -15.4978047485 47.0691334596  
Si -15.6039137621 -27.9549118591 49.3187232005  
Si -9.9723591192 -13.9722148592 44.2274705889  
Si -15.6403744930 -25.6887178338 45.5512106755  
O -20.8632972410 -12.5415279230 42.3919398315  
O -19.2134712828 -27.1670981459 47.3892227453  
O -13.9181794686 -16.4265821712 45.7393901981  
O -14.9398616408 -15.6012440446 48.0306819939  
O -14.2953962707 -27.8485270839 48.3787060534  
O -8.7017383483 -13.0728671744 43.7492176552  
O -16.9757008598 -26.3977213509 46.1656956583  
O -15.6881956226 -25.7807168206 43.9780586824  
O -9.9114905952 -13.9065900589 45.8370418431  
O -15.8602088861 -29.4421763242 49.9340086065  
O -13.5482961678 -14.0104255975 46.5214037817  
O -11.4013590313 -13.5216284382 43.6093837012  
O -14.2233883078 -26.1188379145 46.1628141344  
O -12.3904703933 -16.0045715765 47.8267341320  
O -16.9095238733 -27.4267118455 48.5057332343  
K -13.7154784374 -15.3017480220 43.4691495356  
K -8.1564098413 -20.2801121778 39.9370415091  
K -15.2280363586 -22.8690833265 43.2301431322  
Al -11.6435373916 -20.0786916909 46.8711087302  
Al -13.8740380790 -19.5656391254 42.8219272390  
Si -11.9154268329 -16.2786550740 40.4635599690  
Si -9.8345619202 -19.6637087317 42.7766232791  
Si -9.9459582566 -16.6035345277 42.6541585111  
Si -11.8026535446 -19.2650899432 40.4216177870  
Si -13.6695510603 -18.0549368206 45.5268778066  
Si -11.7422726304 -21.5258120635 44.2855813220  
O -17.1854776784 -19.5933305376 47.3328729435  
O -22.7247788127 -19.9217118631 42.4692607242  
O -9.5632694620 -15.5064345821 43.8136517325  
O -11.6269138035 -23.1072421085 43.8792864447  
O -12.0382396465 -20.2459347956 39.0933953298  
O -8.7841373734 -16.5345885573 41.5801505004  
O -13.1224750162 -19.1908552039 41.2502960502  
O -14.9205263521 -18.9414211996 46.1439241440  
O -10.4079301001 -20.7606614322 43.7805142070  
O -11.8347972383 -21.4614383996 45.8694589876  
O -13.8665432172 -18.1804846659 43.9004176204  
O -11.3505405435 -17.7736717241 39.9494480705  
O -10.0677630109 -18.0825386988 43.3662951389  
O -12.3568100030 -18.6117581082 46.1913892469  
O -13.0243611749 -20.9335033654 43.5345441208  
O -11.3462604760 -16.1024188671 41.9547486141  
O -10.5139487733 -19.7608190624 41.2433323673  
H -17.7828908654 -20.1086235366 53.3418909338  
H -20.3771535415 -31.1055763565 53.1414649344  
H -14.1588608167 -16.9348826192 53.0379701992  
H -16.6395018387 -29.6972139194 51.5378168128  
H -19.0065338109 -27.6956842754 53.3955993385  
H -18.3371353935 -23.4976287807 52.8538728356  
H -16.0750935113 -24.4333588509 52.8565942749  
H -14.9006210902 -21.9560644577 51.4634574864  
H -6.3894188181 -8.4538976015 36.2727035501  
H -8.4349002705 -7.9981526349 37.1896685055  
H -9.0513936942 -10.2960815330 38.1388905207  
H -5.8143928500 -11.8172254815 36.5650181466  
H -9.3601638849 -20.0605649872 37.0376681170  
H -6.9476383249 -17.6428933524 36.5285988855  
H -10.5345743107 -15.2343609524 36.7154977307  
H -10.8010474536 -17.3978262558 38.2256564086  
O -24.5889450932 -31.6836831946 61.2238994928  
H -24.2029823096 -32.6033622674 61.3238723655  
H -23.9808072630 -31.2764370664 60.5629899575  
O -28.8378254763 -29.6652129173 59.4674505594  
H -29.6686477971 -30.1098289468 59.8981583479  
H -28.1837033321 -30.0636382235 60.0251855288  
O -20.8898183344 -25.3425150073 59.4610471728  
H -20.6720711259 -24.4382995291 59.1691327880  
H -20.1053312405 -25.8819919024 59.7085380634  
O -19.2161591709 -20.3620801463 58.3959238609  
H -18.2894600157 -20.4608699031 58.2012609095  
H -19.5160175330 -19.5155525743 58.1672429184  
O -22.7376721091 -26.4263006784 57.7864015027  
H -22.1659466664 -26.0789090941 58.4906139397  
H -22.1126695097 -26.9607756987 57.1978502355  
O -17.4442118489 -23.3206615595 59.9128861370  
H -18.2199851794 -23.3612855459 59.3448257068  
H -17.5037319117 -22.5005899071 60.4186736329  
O -22.7915368513 -24.5784571708 61.4197630792  
H -23.2131626009 -24.0485822587 60.7500488874  
H -21.9878773877 -24.8644889689 60.9366275633  
O -20.2522701748 -24.5534487827 52.6548875982  
H -20.2175605474 -24.7974711343 53.5424770178  
H -20.9222967462 -23.8926743014 52.5826093724  
O -20.1185329111 -25.2019301889 55.7499644920  
H -20.8750631021 -24.6878129166 56.0173058809  
H -20.3760044423 -26.1088868886 55.8365702952  
O -22.2654940540 -23.3934305911 56.5451050181  
H -21.9689076772 -22.9831136874 57.4202078338  
H -23.1556500168 -23.7804560809 56.5701582680  
O -28.9889377839 -23.0096050342 59.0274578604  
H -29.8954820593 -22.8852637074 59.2120354780  
H -29.0022666306 -23.6764701677 58.3249263124  
O -28.6224335086 -22.3857111973 54.9361741025  
H -28.2886432810 -23.0916006398 54.3344958929  
H -27.9169675897 -22.0876898469 55.5318491373  
O -30.9165958252 -33.6297435308 60.8811582272  
H -30.9962891661 -32.6747688409 61.1318508110  
H -31.0757698722 -34.1072290806 61.7222430518  
O -20.1163071102 -31.9165375417 60.1526929637  
H -20.0624498256 -31.5722729073 61.0912693487  
H -20.7578216393 -31.4209699368 59.6431434781  
O -21.2342510555 -21.5010985242 54.8680580780  
H -21.5533935306 -22.3013173702 55.3584774462  
H -21.6637033036 -21.6875582232 54.0481044290  
O -16.7100651939 -22.6835731596 55.6900928277  
H -15.8215879705 -22.4106765781 55.2732323626  
H -17.2825583689 -22.7897251991 54.8651765541  
O -31.4490481791 -34.5739282954 63.3278121894  
H -31.9029950590 -35.3734801356 62.9909940564  
H -32.0987577113 -34.0317682335 63.7562787926  
O -21.9878448250 -29.2877688649 63.8673775494  
H -21.7184661133 -28.6672935600 63.2171136443  
H -22.9229317813 -29.2815048446 63.6771969686  
O -24.7716997441 -29.9396990707 57.3974758115  
H -24.7534409034 -30.9407607605 57.4475022690  
H -24.2129927015 -29.6619416040 58.1248204824  
O -24.6853323778 -36.4332483079 63.0911270137  
H -24.3942319356 -36.3599924385 63.9652693215  
H -25.6147967299 -36.7541135577 63.1836559495  
O -33.1434450852 -28.8574354645 61.7528192227  
H -18.6538764707 -28.0789661772 61.1186438262  
H -32.9666285204 -28.6020469257 62.7130870797  
O -18.2771271483 -31.5609880804 57.9522492146  
H -18.7872719373 -31.8061219513 58.7542733813  
H -32.3258423087 -32.4438156109 57.6849078258  
O -26.3364497068 -26.5422121298 61.0422033992  
H -26.4405067043 -25.4898272219 61.0374809016  
H -26.8883271347 -26.8638142299 60.2465025768  
O -24.6229315351 -21.2607935867 57.5899776200  
H -24.9099000662 -20.5318538730 58.2121466666  
H -24.1540186006 -20.8169878834 56.8378198262  
O -28.0292287539 -18.7200141077 56.6328314140  
H -27.8280429163 -19.5039475373 57.1290938724  
H -14.1515499212 -19.1235089048 55.8691475243  
O -24.5502723564 -24.7095501050 57.1172476072  
H -23.9633983967 -25.5051581948 57.3283992790  
H -25.3503511645 -25.0957812346 56.7278416620  
O -20.1523517716 -30.5151220997 55.9415057925  
H -19.6929947581 -30.4952385649 55.1357996786  
H -19.5140261826 -30.7772803476 56.6532422086  
O -21.8887155950 -31.6163368000 53.4790034485  
H -18.5056494575 -17.4108518107 53.1097681710  
H -22.4895468240 -31.2485146579 54.1461562857  
O -20.1492279077 -31.2498194777 62.7956907663  
H -34.0133502052 -30.4452014540 62.4633550038  
H -20.9781531308 -30.8160114752 63.1029732788  
O -17.1418551431 -26.2836673228 57.8140961496  
H -17.4607296702 -26.7797138848 57.0247987138  
H -17.5941026064 -25.3811867171 57.7967269636  
O -23.4729891297 -22.4766418396 62.9336037043  
H -28.1441500055 -37.5059016734 63.3719155144  
H -23.2998218306 -23.3395000202 62.4711191100  
O -26.1319632672 -22.8008831895 63.6014769225  
H -26.2502496407 -22.9726163553 62.6930764967  
H -30.7176636754 -37.3801977241 63.7326663047  
O -33.2615932009 -34.4246164693 59.3964530109  
H -19.3635016822 -33.5760082060 59.4649692471  
H -32.4530939992 -34.3228455279 59.9368988366  
O -21.3715066497 -18.3473656382 55.1012213911  
H -24.7616736473 -32.4755926907 55.1253141331  
H -20.9303450276 -18.8252593807 54.4122970396  
O -18.5684858777 -26.7677312895 60.0899397754  
H -18.2824042490 -26.6549378258 59.1940259533  
H -32.1831302278 -26.3863289597 60.5801990589  
O -21.4516926390 -33.0986836196 56.7241597148  
H -17.1917345646 -18.8912758542 56.8089245444  
H -20.8799027154 -32.4777023717 56.1952399849  
O -21.4110030201 -27.7300564709 56.0826204238  
H -21.1533743336 -28.6744730500 55.9688802700  
H -22.0128321567 -27.4872055640 55.2942034536  
O -23.3085056378 -27.5729529857 54.3050403147  
H -23.4414328145 -28.4551814364 53.9127528456  
H -23.5151541958 -26.9419584997 53.6062707564  
O -27.4791404882 -24.2551671719 53.5945845759  
H -28.1446927783 -24.6925982564 53.0084345787  
H -27.0352034981 -24.8194042610 54.2415667455  
O -27.4328597506 -29.9952189995 57.1437416191  
H -26.4630305516 -29.8016091239 57.3240769931  
H -27.9078443479 -29.9874988532 58.0084389317  
O -31.2615626223 -30.7330849823 60.4967949489  
H -31.9309815951 -30.2627857301 61.0800634222  
H -31.7562792199 -30.9725422868 59.7091784020  
O -23.5464987259 -34.6898306937 61.2996195389  
H -24.0374648245 -35.1562937614 61.9684532651  
H -23.5531053076 -35.2836228586 60.4983957956  
O -27.0121578958 -25.7166459529 56.2994551012  
H -27.8568286498 -25.3709400574 56.6737330456  
H -27.3189849998 -26.3952398080 55.6441485291  
O -32.8537012658 -36.8322277039 62.5643684268  
H -33.7409642751 -36.6852770373 62.1655174865  
H -28.7502895926 -22.6939601127 62.3702657717  
O -23.4192018382 -20.3059273296 55.4871855160  
H -22.4645504362 -20.6456759353 55.3992189932  
H -23.1503613360 -19.3865359580 55.6393459892  
O -18.5835165194 -23.9354622380 57.5032117321  
H -19.1243639378 -24.3819283412 56.8098050100  
H -17.9267902733 -23.4798097485 56.9746922139  
O -27.9681515933 -28.1786621956 55.0042100847  
H -28.9012606069 -28.5321493419 54.9724332789  
H -27.5714767258 -28.7668705756 55.7032197701  
O -23.4825094844 -28.5723173791 59.3482675271  
H -23.6163871693 -28.2142938600 60.2355367773  
H -23.3203944200 -27.8125975471 58.7886915840  
O -25.3127028327 -16.7742838506 52.7173206172  
H -25.3684378442 -17.2678587869 53.5905024170  
H -26.2734325179 -16.6203413700 52.4811156954  
O -27.4502963726 -32.7052271115 57.4474222267  
H -28.1706519943 -33.1866961358 57.9813846235  
H -27.7055357699 -31.7893014831 57.2762917209  
O -29.4664338244 -26.8846135183 59.5666230087  
H -29.1099512984 -27.7687839327 59.6684368551  
H -29.9855711641 -26.9544209647 58.7148925539  
O -22.2912842103 -31.0157730607 59.0401045489  
H -22.6552899219 -31.3713113691 58.2655349021  
H -22.5049569438 -30.0564586676 59.1082205734  
O -21.0230697048 -22.3977016241 58.9502970523  
H -20.3843632413 -21.7186058261 58.8067011087  
H -21.7871292060 -21.9303429153 59.3962128839  
O -29.4665559480 -24.7202196446 56.8058829357  
H -15.7446430338 -24.2133107710 56.2965735772  
H -29.9308932422 -25.4547413041 57.2645254981  
O -28.7938812541 -34.2643291156 59.5578183522  
H -28.1561937038 -34.7690259193 60.1156333639  
H -29.6579872482 -34.1993742470 60.0559217843  
O -20.9150878111 -35.8297161175 61.3396407049  
H -20.5810968526 -35.1575035782 60.7357213099  
H -21.6116267185 -35.4374559934 61.8411059149  
O -26.7486905389 -35.8204517440 60.6920982390  
H -26.9649187247 -36.4148104076 61.4468974298  
H -25.8989043750 -35.4293536435 60.9935376613  
O -24.1921110293 -23.4179158286 59.3926910213  
H -24.2172606231 -22.4427055423 59.0606754282  
H -24.3968385326 -23.9190080471 58.5516061967  
O -18.2347764497 -27.9120691105 55.5492183233  
H -17.5721287970 -28.5834052544 55.2523413139  
H -19.0892481256 -28.3691595898 55.7116242150  
O -29.7392337467 -32.0160277590 55.5276068937  
H -29.0435726790 -32.1191526814 56.2161310336  
H -30.4937677677 -32.6071998079 55.8320078823  
O -26.8893945422 -23.6134468304 60.8177647002  
H -27.6094800744 -23.3609118492 60.1977567966  
H -26.0545427070 -23.4779837868 60.3241436388  
O -14.7000730309 -19.6760198014 54.3239303051  
H -14.5196180226 -20.5844698671 54.1475170054  
H -14.1638843336 -19.2036162055 53.6524551819  
O -16.3060435454 -29.6102120027 54.8583729558  
H -16.5685595693 -29.9131169405 53.9726245099  
H -30.3480883866 -30.4697805429 55.2331311543  
O -24.5362713390 -32.8515430204 57.9241543561  
H -24.8836875225 -32.4640569019 58.8038195848  
H -25.3927050641 -33.0065484326 57.4987293615  
O -23.9041744764 -27.1353560574 61.7206422052  
H -24.8616804167 -26.9473526405 61.3659746321  
H -23.4304295237 -26.2723130683 61.6398794922  
O -27.3488939002 -21.3106096320 57.2327486923  
H -26.3858257980 -21.3518834900 57.3946743299  
H -27.8982765182 -21.7606991243 57.8999015295  
O -18.6197703583 -19.5168664858 54.5211546111  
H -19.1930240441 -20.2437265937 54.8144297156  
H -18.3608398182 -18.9542977798 55.2650680447  
O -30.9979453226 -25.5552181500 61.4795547012  
H -30.9328019234 -24.6724794386 61.0984731586  
H -30.2960395846 -26.1202026744 61.1262478478  
O -27.4188064182 -31.1894516379 61.3474848534  
H -26.4181452794 -31.2633971437 61.5395864502  
H -27.5895152146 -32.1287158632 61.0815041842  
O -23.9699211022 -30.7518719303 55.0267820224  
H -23.9748694303 -30.0809246607 55.7629313498  
H -24.5746133876 -30.4106017223 54.3346559776  
O -16.7575410962 -20.6828385488 57.5232223151  
H -16.6399161139 -21.4092397057 56.9547616733  
H -15.9247388810 -20.4221400538 57.9665767921  

