&CONTROL
   calculation      = 'scf'
   tprnfor          = .true.
   outdir           = './'
   disk_io          = 'none'
   pseudo_dir       = '/scratch/zhouwq/DFT-feldspar-surface/script-dft'
/
&SYSTEM
   tot_charge       = 0
   ecutwfc          = 110
   input_dft        = 'SCAN'
   ntyp             = 5
   nat              = 493
   ibrav            = 0
/
&ELECTRONS
   electron_maxstep = 25
   mixing_beta      = 0.5
/
&IONS
/
&CELL
/
&FCP
/
&RISM
/
ATOMIC_SPECIES
K 39.0983 K_ONCV_PBE_sr.upf
Al 26.9815385 Al_ONCV_PBE_sr.upf
Si 28.085 Si_ONCV_PBE_sr.upf
O 15.999 O_ONCV_PBE_sr.upf
H 1.008 H_ONCV_PBE_sr.upf

K_POINTS gamma

CELL_PARAMETERS angstrom
14.38000000000000 0.00000000000000 0.00000000000000
3.79226300000000 15.03099300000000 0.00000000000000
-16.02692595000000 -16.61449229999999 28.01481620000001

ATOMIC_POSITIONS angstrom
K -13.5194360859 -13.0359542330 39.5730890255  
Al -17.2750086289 -23.6589516925 40.2183102637  
Si -15.3503528351 -12.0607067442 42.6092547629  
Si -21.2127820691 -23.6685525159 40.2830645103  
Si -17.3267687398 -11.6999715152 40.3212447027  
Si -19.2419464435 -24.1448276713 42.6382300871  
Si -14.0203159790 -10.1437913963 37.6217370136  
Si -19.3037305350 -21.7175757458 38.7654618956  
O -22.7263570769 -23.2176027768 40.4632397996  
O -17.4660795585 -12.7361673410 39.0904337635  
O -18.7086828904 -11.8669735216 41.2270037316  
O -17.8939573207 -24.1022612823 41.7969051354  
O -13.1010924941 -9.2119142329 36.5927127934  
O -20.5160586928 -22.6215662289 39.3133516581  
O -19.1555227233 -21.6426689426 37.1789428330  
O -13.7431940190 -10.0797953221 39.1591100844  
O -19.3475553437 -25.6295709258 43.3255535920  
O -17.2529477353 -10.1883328943 39.6652177496  
O -15.5384334438 -9.5744969250 37.3561565561  
O -17.9186994683 -22.2407744889 39.4980093180  
O -15.8678437272 -11.8254343508 41.0930929101  
O -20.5101824854 -23.6986663228 41.7354326244  
Al -15.3740697341 -16.3755460327 40.2829044256  
Si -17.3979202676 -14.3723176248 38.9141805484  
Si -16.0472383427 -17.6293809114 37.7408400037  
O -20.8732433325 -15.9014905569 40.6414940730  
O -13.8387817142 -11.7168863681 37.1640549593  
O -15.8110191394 -19.2034519856 37.2289692905  
O -18.6945860344 -15.2313884034 39.4402187543  
O -15.0903156542 -16.5388640823 37.0685644572  
O -15.8304150233 -17.7636152530 39.3147123778  
O -17.2972582502 -14.6599069187 37.3441502063  
O -16.1600013089 -14.9497269728 39.6549723311  
O -17.6782594080 -17.5367017471 37.4220313953  
O -26.2410934920 -27.6054914791 52.4392535558  
Al -23.1303769261 -15.7884710945 49.5820624727  
Si -21.2641767630 -17.7835732603 50.9848843834  
Si -26.1936747786 -29.1899554179 52.2049696500  
O -17.6033614365 -16.3609307867 49.4010067178  
O -24.6275231155 -20.3408459025 52.5996583891  
O -19.9323485944 -16.9723183053 50.4214664084  
O -27.0755252957 -30.0672544187 53.2719339356  
O -26.7072082174 -29.5237741799 50.7377937045  
O -21.5717254673 -17.8054352012 52.5951760185  
O -22.6745066280 -17.2365950392 50.3749618135  
O -24.6361424237 -29.7304458796 52.2565969542  
K -24.7337490761 -18.6681644203 50.2075132550  
K -19.2955489968 -24.1573100848 46.3807694044  
K -26.6757806674 -26.6776619060 50.0417455854  
Al -24.8888919349 -23.4197112797 49.6743512815  
Si -23.1889089996 -20.0121206262 47.1206807214  
Si -20.8598097979 -23.4377606879 49.3725916899  
Si -21.1684144594 -20.4505138621 49.3568233505  
Si -22.9366863251 -22.9206614657 47.1074737366  
Si -24.3370592221 -21.9377046714 52.2578776315  
Si -22.8187188531 -25.3516988649 51.0721305252  
O -19.3158275982 -23.7221416812 49.1866533527  
O -21.1115588349 -19.4116204306 50.6405422711  
O -22.6671227320 -26.8368187585 50.5400891444  
O -23.1799027478 -23.9681650022 45.8692188606  
O -19.9780055395 -20.3408686467 48.2814546201  
O -24.0737109471 -23.0722386086 48.2044538967  
O -24.9003819992 -23.0122307844 53.3230009434  
O -21.6139492599 -24.5350185523 50.3720802896  
O -22.9513726739 -25.3334585386 52.7259651890  
O -24.7560372218 -22.0877525525 50.7412355248  
O -23.0321416552 -21.4464661664 46.4413614497  
O -21.1271742319 -21.9333641454 49.9950008635  
O -22.6929819743 -22.0879414846 52.4396537675  
O -24.2479067200 -24.7627446815 50.6010814014  
O -22.6415663042 -20.1901851993 48.6226750814  
O -21.5223787504 -23.3430477230 47.8363392118  
K -17.5152568044 -16.8733231121 46.4795416421  
Al -19.4227632263 -12.0602897347 42.8305718109  
Al -20.8516445675 -27.5137257488 46.8961619801  
Si -19.1353578042 -15.8264705608 49.5375589361  
Si -24.9169877591 -27.5530586521 47.0740160418  
Si -21.0703913696 -15.5065990025 47.1450936327  
Si -22.8889585858 -27.9090912061 49.3338512012  
Si -17.2963249595 -14.0292735566 44.2158644508  
Si -22.8592157773 -25.6036719493 45.5208746317  
O -13.8255217575 -12.4599585721 42.4411658657  
O -26.4737844005 -27.1741557502 47.2843672903  
O -21.2302467368 -16.5158769079 45.9361342501  
O -22.3732843148 -15.3654109145 48.0991181878  
O -21.6372999582 -27.7987474429 48.4062406157  
O -16.2269849439 -13.2014231059 43.2980990721  
O -24.1812659802 -26.4479234660 46.1111868302  
O -22.9947381118 -25.7578433501 43.9037793983  
O -17.1813531215 -13.8702757388 45.8319991762  
O -23.0634707904 -29.3445177022 50.1306726163  
O -20.8571046490 -14.0176020201 46.4765800758  
O -18.7399278510 -13.5106564505 43.7435346497  
O -21.5040540287 -26.1553337206 46.0923768822  
O -19.7578471819 -15.8789481403 48.0000257808  
O -24.2462520670 -27.4520272247 48.6076271230  
K -21.3960202327 -15.2508856607 43.5066893893  
K -15.5565878848 -20.7177674228 39.7522237645  
K -22.9505423774 -22.8783571805 43.4133600302  
Al -19.0058461495 -20.0482974861 46.8892783396  
Al -21.3131067074 -19.4889856823 42.9395094247  
Si -19.3569955004 -16.3104983362 40.4400275234  
Si -17.1960023976 -19.6704641373 42.5738760521  
Si -17.2154932105 -16.6905550312 42.7004229790  
Si -19.2499331299 -19.1320259431 40.3838378063  
Si -21.0520690812 -18.1582663005 45.5635371947  
Si -19.2685714632 -21.4277874751 44.2433189707  
O -24.6791667929 -19.5088156577 47.1533379929  
O -15.7453303261 -20.3148634250 42.4718220788  
O -17.0886857606 -15.6966009169 44.0488161039  
O -19.2967049066 -23.0744974778 43.9306736219  
O -19.4203630991 -20.1760513103 39.1868847736  
O -15.8453333881 -16.4615950008 41.9434626453  
O -20.4024201702 -19.0409513330 41.4613676797  
O -22.2810249378 -19.0067180773 46.2614262874  
O -18.0969181154 -20.6940466378 43.4409746347  
O -19.1150105716 -21.3700596102 45.8728207655  
O -21.1249775289 -18.1291466300 44.0019112974  
O -19.0958200900 -17.7111727637 39.5865361372  
O -17.2198486847 -18.1949279413 43.2145348775  
O -19.6077288858 -18.5991859050 46.1749805688  
O -20.7206567840 -20.9163699316 43.7132786482  
O -18.6324417756 -16.4342690045 41.9338575655  
O -17.7982272732 -19.4278182424 41.1348750074  
H -24.0264571800 -19.9848792391 53.2631292791  
H -28.0356243082 -30.3625467716 53.2897833756  
H -21.0950623507 -17.2494393690 53.2612883054  
H -24.2451959152 -29.4588850052 51.4376838555  
H -26.7127927130 -27.4095314245 53.2768965602  
H -25.8540968510 -23.0882165718 53.2062191810  
H -23.7241253949 -24.6933357408 52.7887984197  
H -22.2395556082 -21.8056745559 51.5822403071  
H -12.1732533238 -9.0244473464 36.7227815829  
H -15.5690357427 -7.3966049244 36.6858020256  
H -16.2282916221 -10.0086804756 37.9376640980  
H -13.4295549039 -11.9207856540 36.3371376274  
H -16.5292003043 -19.3283627136 36.5589349293  
H -15.5109315657 -15.6629746384 37.1661360599  
H -17.6288472924 -15.5042091742 37.0585591657  
H -18.0972527009 -17.7810800875 38.2922516288  
K -6.2490938203 -12.9393392142 39.7331736895  
Al -10.0233523202 -23.6337986553 40.2403219050  
Si -8.2242859251 -12.0558984396 42.6958605661  
Si -13.9679740077 -23.8107246472 40.2560102021  
Si -10.2069267332 -11.7020975972 40.3295691052  
Si -11.9080625096 -24.1335091585 42.6327071662  
Si -6.9608385644 -10.0029628058 37.6034073196  
Si -12.0654351655 -21.7685711184 38.8041223419  
O -15.4894172122 -23.3991844798 40.4930955895  
O -10.4064769810 -12.7333606033 39.1442222106  
O -11.4639125030 -11.3527367571 41.2701465485  
O -10.4914980361 -24.2219488887 41.8605387894  
O -6.0164235401 -9.1263346838 36.6572269130  
O -13.4276576233 -22.6960556584 39.1110046428  
O -11.7885168796 -21.8405974786 37.1915094791  
O -6.5830160831 -9.8995342871 39.1790406250  
O -12.3024877865 -25.6141429001 43.2452711330  
O -9.9138850644 -10.2669090445 39.5202610863  
O -8.4380053694 -9.6105585781 37.2514611858  
O -10.8186578564 -22.1584094864 39.7543849074  
O -8.8516392206 -12.0690846534 41.1507233892  
O -13.1762207028 -23.7367245148 41.6914893842  
Al -8.1204364634 -16.3432091927 40.2736195151  
Si -10.0577615269 -14.3249271378 38.8595916780  
Si -8.4619831321 -17.7246445490 37.7488442369  
O -13.6746664095 -15.8665952817 40.2884273465  
O -6.6532434719 -11.6318437449 37.3094118342  
O -8.2197763589 -19.3639050450 37.3230190306  
O -11.4709827620 -15.1071638790 39.2921404401  
O -7.5214828058 -16.7766897512 36.8055453542  
O -8.3305184109 -17.7870819211 39.3517719775  
O -9.9774981048 -14.4148006347 37.2445775453  
O -8.7554894239 -14.9761663373 39.4454215059  
O -9.9258195510 -17.2546231292 37.2183236604  
O -19.3974494644 -27.7359725984 52.5302616873  
Al -15.9156135481 -15.9154641135 49.6533001482  
Si -13.7348051353 -17.8168766278 50.9897669656  
Si -19.0484533192 -29.2830033394 52.0791431041  
O -24.7702989364 -16.1173956116 49.0602665104  
O -17.2734295255 -20.3950299844 52.7483770420  
O -12.5250530637 -17.0852670444 50.1706137399  
O -19.7376494232 -30.4275943605 53.0873563180  
O -19.4415405685 -29.3523185997 50.4978267931  
O -13.6061699851 -17.6592457903 52.5876520393  
O -15.0989126122 -17.2583568431 50.4113010323  
O -17.4621069108 -29.5501171743 52.3463244084  
K -17.9871688018 -19.0703249422 50.4132220482  
K -11.8398616033 -24.1763408620 46.4142270992  
K -19.5731125206 -26.6708400175 50.2953997355  
Al -17.6879203469 -23.4814295870 49.6971633462  
Si -15.8400346406 -19.9969986165 47.2573129821  
Si -13.7137642149 -23.4476243794 49.4455902967  
Si -13.7034426464 -20.4086625487 49.4366255555  
Si -15.7439306370 -23.0088668378 47.2695594589  
Si -16.9898969419 -21.9589426285 52.3084643853  
Si -15.7154259325 -25.3419264845 51.1095102943  
O -26.5588218258 -23.7987285817 49.2905482996  
O -13.5771699149 -19.4088938150 50.7506805199  
O -15.4715371656 -26.9551765147 50.7411554824  
O -15.7367770302 -23.9861130620 45.9608673307  
O -12.4018785408 -20.4201804291 48.5125368326  
O -17.0495926092 -23.2531558292 48.1064020400  
O -17.8805087600 -22.8882566870 53.2359949285  
O -14.4649466785 -24.5049055303 50.3632756331  
O -15.3454042454 -25.1012723406 52.6899461396  
O -17.5277640720 -22.1248213613 50.7929428712  
O -15.6248433349 -21.5249713801 46.6974168698  
O -14.0252405600 -21.9313197964 50.0952138632  
O -15.3649155269 -22.3250793061 52.3918684953  
O -17.1578435091 -24.8751019070 50.4927841262  
O -15.0901501494 -19.9592272860 48.7176052871  
O -14.3566837539 -23.4793244467 47.9782542665  
K -10.1970160363 -16.9468465458 46.4048621463  
Al -12.1698037721 -11.9937756337 42.8396165944  
Al -13.7727557039 -27.5766686626 46.9201746797  
Si -11.9269035093 -15.8216465757 49.2835045744  
Si -17.6845595172 -27.4100315221 47.1454938443  
Si -14.0198010515 -15.4374181876 47.0532050355  
Si -15.7184574883 -27.8467869765 49.4238187824  
Si -10.2712504944 -13.9777856936 44.2075400483  
Si -15.6626703408 -25.5555977321 45.5544123688  
O -21.0824002638 -12.4544613577 42.5136842185  
O -19.2050988438 -26.9992400834 47.2637163687  
O -14.0245928572 -16.4824676883 45.8315189222  
O -15.2647828601 -15.7994995573 48.0452496983  
O -14.4457823154 -27.8399679887 48.4910054452  
O -8.8775165567 -13.2774198208 43.5390264914  
O -16.8491926391 -26.4643045257 46.1757809921  
O -15.7510459218 -25.6826088976 43.9368368814  
O -10.2301824873 -13.7936710124 45.7533175638  
O -16.0294805745 -29.4089425542 49.9372903422  
O -13.9988927924 -13.9051977405 46.5250857290  
O -11.5028353303 -13.4353177402 43.4468177249  
O -14.2935507332 -26.0823852103 46.2570239591  
O -12.6263526240 -15.7568225009 47.8365793388  
O -17.0429744017 -27.3193505063 48.6771839095  
K -13.6949510731 -15.3478916284 43.4012736380  
K -8.3355237409 -20.6166326727 39.6340812824  
K -15.7409974834 -23.0805292732 43.3037020353  
Al -11.8590379189 -19.9842281919 46.8703083069  
Al -14.1594870080 -19.6597608997 42.8749953051  
Si -12.1468133571 -16.2640821955 40.1899752782  
Si -10.0728328301 -19.6476726079 42.5782783804  
Si -10.2547354571 -16.6631354899 42.6350283938  
Si -12.1742104096 -19.2262059492 40.3614259533  
Si -13.9770131657 -18.0779500409 45.5436066540  
Si -12.0079011563 -21.5437784980 44.1748827768  
O -17.3962441704 -19.6524042322 47.4083528626  
O -22.9254543460 -19.9870345935 42.3406326967  
O -10.1400906740 -15.6386274877 43.9182670604  
O -11.8649373134 -23.1407150840 43.9253107856  
O -12.4360703856 -20.2230200144 39.1356576811  
O -8.9425331133 -16.4637829466 41.8177161417  
O -13.3860736618 -19.1727195824 41.3461867639  
O -15.1735297385 -18.9334899485 46.3065701626  
O -10.6623164655 -20.8066235374 43.5334235282  
O -11.9671473856 -21.3121574220 45.7603612891  
O -14.1400219553 -18.2224065985 43.9626905547  
O -11.8698207356 -17.7731124830 39.6416052617  
O -10.4160315496 -18.1687100445 43.2169361474  
O -12.5690154488 -18.5653748397 46.1742601878  
O -13.4273779684 -21.0956310849 43.5918544305  
O -11.5603253291 -16.2429586384 41.7310302962  
O -10.8001363633 -19.6662965503 41.1119829005  
H -17.6549404771 -20.2325095573 53.6294029903  
H -20.3662684162 -31.1138809911 52.7378114542  
H -13.0950855209 -16.9461252440 53.0602219675  
H -16.9900027334 -29.5462233964 51.4775449368  
H -19.1817936191 -27.5617641479 53.5263885090  
H -18.8786254456 -22.9443511618 53.1929321539  
H -15.3707670375 -24.1369028560 52.8626774921  
H -14.9080203173 -21.9762532555 51.5794388255  
H -6.0460032479 -8.2183490894 36.4747303961  
H -8.1270943876 -7.7286666311 36.9473803665  
H -8.9513604674 -9.8240136857 38.0243499436  
H -6.3117844203 -11.8310342040 36.4616034536  
H -8.6735604112 -19.5685114197 36.5442071403  
H -6.5883489076 -16.7565022370 37.1127478244  
H -9.8000715264 -15.3277477613 37.0257418096  
H -10.6908017129 -17.2150539714 37.8269655529  
O -21.4317873379 -31.7053079624 61.1017548942  
H -21.6512797707 -32.5986240189 61.4887595694  
H -22.1503795234 -31.5603670650 60.4615763228  
O -27.6790626337 -29.5919393878 59.0418654802  
H -28.4667764166 -30.1467092792 58.8628908258  
H -27.0679877565 -29.8687025879 59.7615260872  
O -21.1435945802 -26.7417047121 61.9629303442  
H -20.2654692455 -26.3590357055 62.1412646599  
H -21.3127516346 -27.4786256057 62.5550034740  
O -19.7577503503 -22.2715419912 60.7257160184  
H -19.4447754244 -22.2212961244 59.8228385135  
H -20.6762229069 -22.4526732981 60.9132552023  
O -20.4870113943 -27.5082019377 59.3944519526  
H -20.7981762602 -27.1431075568 60.2308943220  
H -20.2496070999 -26.7138491629 58.8874638217  
O -31.4849122535 -22.5907456770 61.8252575331  
H -30.9874080888 -22.0476008471 61.1915623907  
H -18.0256818867 -22.5399399263 61.5630388535  
O -22.4329403945 -24.5150705072 62.8080973278  
H -23.3941242547 -24.5572332733 62.6714650670  
H -22.0710285770 -25.2743733290 62.4030831278  
O -20.2868038713 -22.9779744902 53.9617387528  
H -20.5084523688 -23.7305448135 54.5321204106  
H -21.0552456449 -22.9537012218 53.4161702179  
O -20.9610817491 -24.8005758977 55.7181876862  
H -21.8562589916 -24.5032496585 55.9814469161  
H -21.0549417875 -25.6919685021 55.3601583352  
O -23.4524711519 -23.9054172251 56.0673323384  
H -23.6924383966 -23.4257788163 55.2033554068  
H -24.1508859083 -24.5949425072 56.2528704639  
O -29.9794745987 -20.9366062570 60.0893794790  
H -33.2710009688 -35.2018401318 60.4527716663  
H -29.3277811137 -21.3137564104 59.3759621739  
O -27.5623070806 -22.3371351038 54.1138191836  
H -13.9044817919 -22.2260558928 53.5600863308  
H -27.1133774329 -21.4610090820 54.2621376248  
O -28.1358818707 -33.0172005076 59.7640874418  
H -28.9292784418 -32.4227466762 59.5876741421  
H -27.7405464250 -33.0267146530 58.8600893442  
O -33.2866852923 -31.6034225328 60.3322279143  
H -18.8540035863 -30.6060891592 60.2958886956  
H -19.8673113105 -31.7578334922 60.5887635884  
O -20.7324045544 -21.1613313262 56.2020435831  
H -21.4880381805 -20.9364845537 56.7750666379  
H -20.9562524296 -21.9759308551 55.6435882328  
O -17.1471882424 -22.5491583466 55.9702409897  
H -17.3071111415 -23.0708578495 55.1762210562  
H -17.4286849414 -21.6230239837 55.8214422945  
O -30.5749851172 -34.9744495221 59.8665416268  
H -26.2277012029 -20.7299384284 60.1843096848  
H -29.9023190688 -34.4220608215 59.4896222854  
O -21.9570566450 -29.3478288086 62.8716509394  
H -21.5124288729 -29.9906161185 62.3291240131  
H -22.8444855752 -29.5583043899 63.0724771503  
O -23.6127487928 -28.8222529563 56.0876630907  
H -23.4515744874 -28.3688040226 56.9412345191  
H -22.8181206205 -29.3752676496 55.9487896447  
O -20.1411078756 -25.0465202804 58.1449111078  
H -19.3274077597 -24.5487594536 58.3855183578  
H -20.3235996981 -24.9602203713 57.1855237164  
O -30.3358947193 -27.7061877765 60.1672606681  
H -29.4147607733 -27.7093207777 59.8799887385  
H -30.4642011884 -26.7914465768 60.3550399789  
O -20.1591964165 -32.4645954567 58.0607065745  
H -19.7115086976 -32.0020991871 58.8055004738  
H -19.4012583063 -32.8169521392 57.5533982743  
O -24.8270386183 -26.0749226667 62.0472149198  
H -25.7596003466 -25.7426093594 61.9740562283  
H -24.6433660743 -26.2291888376 61.1003141322  
O -27.7613703021 -33.2988101193 56.9558022236  
H -23.6837863509 -19.1937603263 56.8084442904  
H -27.4740236797 -32.8006205676 56.1543383533  
O -14.4413466685 -18.8287135002 56.7187168362  
H -28.4107532092 -19.6467465756 56.9713304360  
H -14.5550762304 -18.8086929282 55.7373178035  
O -22.8740950722 -28.0372398472 58.5342370106  
H -21.8882972075 -28.0221918785 58.7497910107  
H -23.1611481231 -28.9049764386 58.9066739814  
O -18.2452183345 -29.5532800308 56.8153279309  
H -18.3813608454 -29.4647846634 57.7949660323  
H -18.9993418029 -30.0872424747 56.4858736924  
O -17.4473768994 -17.1946593174 52.3849048124  
H -18.2831478107 -17.1711410921 52.9808199741  
H -16.8365832114 -17.7361059859 52.8713220639  
O -18.3228967007 -29.1112948182 59.4696117024  
H -19.1274026712 -28.5003846488 59.5043500745  
H -31.9484764820 -28.4800436097 59.8276410534  
O -30.1313588531 -24.4267642839 57.2926203566  
H -29.1551794800 -24.2905985101 57.1549475456  
H -16.1496837261 -23.6714333650 56.7816301091  
O -22.2381506028 -22.0111903710 61.8989765209  
H -23.1384006959 -21.7795469536 61.6413202542  
H -22.2984908897 -22.9611238329 62.1056458221  
O -24.8185368541 -22.0271521445 60.3445544335  
H -24.3225942120 -21.6557415044 59.5637414848  
H -25.1466105661 -22.8332612634 59.8489323137  
O -32.4915449668 -34.0414394681 61.6418005082  
H -32.6458832696 -33.0942465318 61.2834509878  
H -31.7790165106 -34.2978650259 61.0226730702  
O -22.0553488606 -32.4335658720 55.9226958444  
H -21.1432396767 -32.2407686521 56.1587406815  
H -22.5981292614 -32.5963914271 56.7861124797  
O -29.9310415619 -29.2422896609 56.2499889400  
H -30.8361318155 -29.6645629095 56.4486540080  
H -30.0622118471 -28.3689643040 56.5047636828  
O -23.4875722980 -30.5909365524 59.6646748654  
H -24.3650105375 -30.3739614691 60.1216365388  
H -23.6773786593 -31.1955665939 58.9695072120  
O -20.7068844276 -29.5174189459 55.6057282097  
H -20.5672267895 -29.7471297957 54.6625093694  
H -21.0453378841 -28.6351337677 55.5046347444  
O -22.0439177919 -27.0397265046 54.6911645243  
H -22.7804424234 -27.5004078686 55.1126674446  
H -22.3268487893 -26.5082880171 53.9794281082  
O -16.0758494146 -26.2113958583 55.4062627184  
H -16.0410204417 -25.7956820978 54.5811863601  
H -16.0269734936 -25.5393136463 56.1831535928  
O -26.1047712343 -29.8208719062 56.8293353390  
H -25.2007785633 -29.5217817125 56.8393406305  
H -26.5413773596 -29.5514900638 57.6468877181  
O -29.9385803758 -30.6996427478 58.9358894326  
H -30.6706755241 -30.1135463841 59.1942660803  
H -30.2365529842 -31.1064750502 58.0998472748  
O -22.1416846152 -34.1852898119 62.2386761779  
H -21.3934004522 -34.5137276018 62.8469178588  
H -22.0171355536 -34.8664251628 61.5763258806  
O -25.4591934396 -26.0099358654 56.3603673158  
H -25.6922076084 -26.3836718405 57.2331489040  
H -26.0368127613 -26.4847632904 55.7574884712  
O -27.4695021529 -25.3682404199 61.3573300603  
H -28.3726619488 -25.1029979326 61.4938022363  
H -27.1329756224 -24.7931960397 60.5898841810  
O -22.9037754376 -19.6731115672 54.6304123943  
H -22.1330610139 -20.1968019285 54.7740083379  
H -22.5329698992 -18.7885449548 54.3770784135  
O -18.9985511049 -22.3702949697 58.0992869785  
H -19.5594980537 -21.6835994160 57.6891500694  
H -18.2235889737 -22.4002617689 57.4750368313  
O -27.2386434763 -27.8563866699 55.1769414372  
H -28.0935653873 -27.6905703027 55.5896397010  
H -26.8735113207 -28.6451641332 55.6581559372  
O -25.8133800018 -30.0444745326 60.9712058507  
H -25.8516975174 -30.9299620339 61.4488984881  
H -25.3375104614 -29.4404891418 61.5954559980  
O -26.6739467392 -19.7730982844 54.5049060177  
H -25.8692731884 -20.0160444767 54.0463434977  
H -27.1706210391 -19.3598748499 53.7641942774  
O -26.6928754854 -31.8660377926 55.1606928438  
H -26.8988354156 -31.3825368047 54.3240103474  
H -26.4715860651 -31.1029410867 55.7087426910  
O -27.8001061081 -26.9242473400 58.8847423824  
H -27.7479587076 -27.8872969632 58.7055276011  
H -27.4733315122 -26.8938170433 59.7859389984  
O -24.0425765643 -32.5932370373 57.7344540293  
H -24.2701393012 -33.1989974928 58.4401072282  
H -24.8317042274 -32.3435750151 57.3134313629  
O -22.3139409617 -23.9356132915 59.4271092241  
H -21.4817138934 -24.1734364332 58.9888774564  
H -21.9961670409 -23.2586560646 60.0443956885  
O -27.5508320112 -23.7309848108 56.4429710024  
H -27.5475363258 -23.2696451315 55.5549013289  
H -26.8679485878 -24.4074010947 56.3794173908  
O -22.6083511060 -21.2695138477 58.3958438186  
H -22.5160216082 -22.2658081876 58.3050758141  
H -21.9270033578 -20.8818136071 58.9736694133  
O -34.2685186497 -35.3422861790 63.6290915271  
H -33.5423476843 -34.8814197560 63.1573220223  
H -34.4128904247 -36.1358876237 63.1268258938  
O -24.8606185832 -34.6326310054 62.8370726519  
H -25.0681036186 -35.5610578929 62.7087647937  
H -23.8888020182 -34.4620736896 62.6857126021  
O -24.2008789195 -25.9438033751 59.2804716718  
H -23.7713428366 -26.7662833516 58.9337282896  
H -23.4352568876 -25.3503898384 59.2757491743  
O -18.9499699055 -27.1677334664 55.0146956302  
H -18.7493989832 -27.9110161009 55.5309686716  
H -17.9872793002 -26.7778948049 55.0067714394  
O -30.3017663865 -32.2704740620 56.8817630665  
H -29.5692732287 -32.8788804840 56.7873131147  
H -31.1256347955 -32.8116345195 56.8992122948  
O -26.0818986395 -24.0723704935 59.1625693168  
H -26.5039706785 -23.7318813320 58.3722313306  
H -25.3938704693 -24.6873454538 58.9751902176  
O -15.5402338466 -18.4625132025 54.2735036359  
H -14.8134470639 -18.1551664169 53.7372200115  
H -15.7307611530 -19.3162737234 53.9151541156  
O -29.6744703212 -30.7617210985 53.6447711181  
H -30.1432725072 -29.9114904186 53.4911698830  
H -29.5651929157 -30.9034798823 54.5794254288  
O -24.5783356317 -34.4284193271 59.6752404533  
H -24.8524855118 -34.2890252405 60.6278242464  
H -23.5402638628 -34.5047844627 59.6910888350  
O -24.6017778979 -28.5310664681 62.9847507545  
H -24.8789454334 -28.5637496341 63.9010753712  
H -24.6861440637 -27.5898263001 62.7230923712  
O -27.9716943627 -21.2395155839 57.7693524860  
H -27.5579682704 -21.9665088287 57.3114303046  
H -27.4249201481 -20.7984267982 58.4150539783  
O -18.2082982913 -20.2173679246 55.3162150949  
H -19.0663732184 -20.4969428779 55.6785667318  
H -18.1481673731 -19.2429880056 55.4418815561  
O -30.6546077434 -24.9589491400 60.2292134330  
H -30.9842356529 -24.1966353707 60.7201130552  
H -30.2776675014 -24.6270759504 59.3883687354  
O -26.2016936851 -32.4175923635 61.7646654878  
H -26.8259753994 -32.7302009741 61.1019149788  
H -26.0488016208 -33.2013318664 62.3961194449  
O -23.6375395775 -31.3894439533 54.1197423161  
H -23.2498771074 -31.4842825803 55.0002079681  
H -23.7159389762 -30.4789121769 53.9077902210  
O -21.9761416003 -34.1243306065 59.3052047524  
H -21.2474249706 -34.6885992764 59.6276953081  
H -21.4472644942 -33.3692528826 58.9652649684  

