&CONTROL
   calculation      = 'scf'
   tprnfor          = .true.
   outdir           = './'
   disk_io          = 'none'
   pseudo_dir       = '/scratch/zhouwq/DFT-feldspar-surface/script-dft'
/
&SYSTEM
   tot_charge       = 0
   ecutwfc          = 110
   input_dft        = 'SCAN'
   ntyp             = 5
   nat              = 493
   ibrav            = 0
/
&ELECTRONS
   electron_maxstep = 25
   mixing_beta      = 0.5
/
&IONS
/
&CELL
/
&FCP
/
&RISM
/
ATOMIC_SPECIES
K 39.0983 K_ONCV_PBE_sr.upf
Al 26.9815385 Al_ONCV_PBE_sr.upf
Si 28.085 Si_ONCV_PBE_sr.upf
O 15.999 O_ONCV_PBE_sr.upf
H 1.008 H_ONCV_PBE_sr.upf

K_POINTS gamma

CELL_PARAMETERS angstrom
14.38000000000000 0.00000000000000 0.00000000000000
3.79226300000000 15.03099300000000 0.00000000000000
-16.02692595000000 -16.61449229999999 28.01481620000001

ATOMIC_POSITIONS angstrom
K -13.2373939808 -12.5491766396 39.5113763875  
Al -17.0023211604 -23.5386131768 40.1978994691  
Si -15.1750010981 -11.8575138659 42.6101352285  
Si -20.9106657302 -23.4967422551 40.3105990725  
Si -17.1809854261 -11.3837162764 40.3216449143  
Si -19.0096384367 -23.9919343363 42.6920985765  
Si -13.9209037358 -9.8525670259 37.6288607812  
Si -18.8740688307 -21.6198525130 38.7512143605  
O -22.3817276322 -23.0091245497 40.5110250718  
O -17.2885680941 -12.4336660188 39.0685822069  
O -18.3906952259 -11.5952460992 41.2721476068  
O -17.7476082191 -23.8742516016 41.7359128784  
O -13.1454950801 -8.8662238379 36.6334543404  
O -20.0813632995 -22.3472577528 39.5682864855  
O -18.9904669560 -21.8527308793 37.1671766102  
O -13.4524493947 -9.8956944609 39.1489447082  
O -19.0351610697 -25.4782928238 43.4207239247  
O -17.0803666780 -9.9495096323 39.5155385888  
O -15.4726535062 -9.4591960101 37.6022066846  
O -17.4998851224 -22.1110429256 39.3894719159  
O -15.7654314382 -11.7410490270 41.0814067297  
O -20.3381094834 -23.6905020540 41.8577373077  
Al -15.1081419406 -15.9625985922 40.4337041791  
Si -17.0766474614 -14.0676202396 38.8932894998  
Si -15.7932291460 -17.4552576296 37.8373710560  
O -20.6303211213 -15.4870637110 40.6883188372  
O -13.5767020617 -11.4248242379 37.0169371530  
O -15.2634839596 -18.9371840409 37.4645338736  
O -18.5327969289 -14.7121707193 39.5150583348  
O -15.1080172472 -16.3658290936 36.8155506457  
O -15.5375861023 -17.3296678352 39.4290128279  
O -17.2888250425 -14.2603550857 37.2677898215  
O -15.7887204979 -14.6221506025 39.6977949787  
O -17.3781982831 -17.3788254946 37.4177891517  
O -26.5163174559 -27.8977507035 52.8121707806  
Al -22.9943411772 -15.6001609262 49.5754189592  
Si -20.9847785459 -17.5884072791 50.9417415664  
Si -26.0715702148 -29.3342724516 52.1302101120  
O -17.4839656186 -16.1989721769 49.2365197255  
O -24.7820172054 -20.4903183103 52.9146249656  
O -19.6521372530 -16.6473178359 50.6031625021  
O -26.8433384717 -30.5902140664 52.8661993547  
O -26.4518631708 -29.1706895347 50.5200785614  
O -21.1261863074 -17.6254668820 52.5465102807  
O -22.2562279250 -17.0919881352 50.1676521736  
O -24.4182972301 -29.3623344147 52.2653215684  
K -24.6129776495 -19.1277220197 50.5344861812  
K -19.2653348827 -24.1174554424 46.3901343572  
K -26.4976871212 -26.2809383753 50.4488408860  
Al -24.8572252458 -23.2190294821 49.6089566963  
Si -22.8715547956 -19.9113592050 47.0181464941  
Si -20.7860356914 -23.1603865113 49.5069827653  
Si -20.8127158990 -20.2033538612 49.3601851284  
Si -22.7257426930 -22.8910809615 47.1181193668  
Si -24.2230491360 -21.9161123385 52.3112658669  
Si -22.8631168281 -25.1439501905 50.9565493978  
O -19.3369754714 -23.8136331789 49.3632267370  
O -20.6210403851 -19.1657782621 50.6234932544  
O -22.3680847895 -26.7152865483 50.7053765600  
O -22.8367826443 -23.8737742071 45.7979811851  
O -19.6103639429 -20.3709757339 48.4191274311  
O -24.0305403746 -22.9748517508 48.1128054265  
O -24.8424727281 -23.1870834487 53.1401842571  
O -21.6726142916 -24.1630950205 50.4278697950  
O -22.9005983573 -25.1298203811 52.5230578774  
O -24.4433829063 -21.9738130805 50.7284287516  
O -22.6740378452 -21.3670124063 46.4256731526  
O -21.0729637212 -21.6778086806 50.1646105650  
O -22.5549343058 -21.9338753556 52.6279933747  
O -24.2239525722 -24.7767473966 50.2951596085  
O -22.1395594310 -19.7347051383 48.5403115218  
O -21.3884758233 -23.2041250698 47.9419150477  
K -17.0361211132 -16.7424790150 46.4431223810  
Al -19.2501315412 -11.8707718460 42.8647498866  
Al -20.6247485086 -27.3993160537 46.9213753147  
Si -19.0085366858 -15.6982539504 49.4888931983  
Si -24.6622770616 -27.2433776324 47.2802050891  
Si -21.0225043470 -15.1891403033 47.1069934826  
Si -22.6367786638 -27.7598555432 49.4254996713  
Si -17.1846356487 -13.8168791976 44.2824596710  
Si -22.6914893567 -25.4993504987 45.5683397346  
O -13.6519544705 -12.3065484866 42.5139243455  
O -26.1816552887 -26.8494911685 47.4227604824  
O -21.2391536390 -16.2301101108 45.8516895899  
O -22.3544285503 -15.3135066505 47.9644069430  
O -21.4647887849 -27.7585656122 48.3815075351  
O -16.0825411725 -12.9669040363 43.4016738497  
O -24.0086219678 -26.0215806570 46.3929358389  
O -22.8000489532 -25.6052509874 44.0065537526  
O -16.9131368104 -13.6663007598 45.8394431131  
O -22.8784736923 -29.1847964783 50.0517508769  
O -20.6426847109 -13.7124854502 46.5438156347  
O -18.4945203737 -13.3172691554 43.6205896277  
O -21.3065570933 -26.0601322699 46.0930972632  
O -19.7620251912 -15.7142994850 48.0526936352  
O -23.9752101526 -27.1849906989 48.7086405460  
K -20.6353645141 -15.0900882906 43.4774739381  
K -15.1875339153 -20.3748625794 39.6913915922  
K -22.8042824747 -22.5293193409 43.3277147349  
Al -18.9315111589 -19.7737433239 46.8630244547  
Al -21.0619845287 -19.2757027344 42.7959935234  
Si -19.1217819508 -15.9054809578 40.4195366864  
Si -17.1014382269 -19.3788132371 42.5954874818  
Si -17.1581957616 -16.4053490072 42.8196060114  
Si -18.9487881450 -18.9008799546 40.2598522340  
Si -20.9174064369 -17.8646043872 45.4814938044  
Si -19.0246924147 -21.2989299851 44.1928122592  
O -24.3817309104 -19.4611609150 47.2700397129  
O -15.5609995755 -19.7283918322 42.5014377417  
O -17.0727236310 -15.5198693023 44.1268573776  
O -18.8137077620 -22.9463635745 43.9085819382  
O -19.1025703775 -19.9338290159 39.0275204906  
O -15.7724039248 -16.2346460956 41.9972510924  
O -20.2315570482 -19.0445828759 41.2116356038  
O -22.0892484096 -18.8329543350 46.0911762472  
O -17.7164327266 -20.5154187451 43.5877722716  
O -19.0914276148 -21.1548681493 45.7900569942  
O -20.8029826998 -17.9287365731 43.8419066757  
O -18.8840205901 -17.3887585990 39.6862688829  
O -17.4487141860 -17.9213392628 43.2643212080  
O -19.5340602815 -18.2769344170 46.1480863453  
O -20.3590025334 -20.7690746479 43.5186957391  
O -18.4572596409 -15.9499590130 41.9096847812  
O -17.6613177476 -19.3736547885 41.0561933951  
H -24.2505540366 -20.3204844285 53.7508272080  
H -22.5421279749 -16.4062592983 52.9367966915  
H -20.6756134963 -16.9262769253 53.1055259274  
H -23.9174762106 -29.2556429427 51.4167127645  
H -26.8711498157 -28.0295858524 53.7722785529  
H -25.7742738242 -23.5535007389 53.0123566529  
H -23.6436460185 -24.5550483023 52.8590755871  
H -22.0349707054 -22.0617208261 51.8492615266  
H -13.4400638957 -7.9307374755 36.5630170883  
H -15.5621945012 -7.6953800447 36.9805178920  
H -16.0134288288 -9.6976044520 38.3473207532  
H -13.4899475995 -11.3828073832 36.0783607680  
H -14.9680204975 -19.0780136962 36.5779049620  
H -15.4772732125 -15.4814018923 36.6863623219  
H -17.4241378503 -15.2461310155 37.1624541126  
H -18.0199122720 -17.3472752043 38.1516972938  
K -6.2932372888 -12.8957685451 39.4802399203  
Al -9.6629780468 -23.5046449506 40.2030221783  
Si -7.8890508954 -11.8550183669 42.5336948015  
Si -13.8505875519 -23.5062353511 40.4823699170  
Si -10.0811023706 -11.5056844028 40.4489122222  
Si -11.7092506767 -23.8478939335 42.6100551862  
Si -6.5417268992 -9.9014034942 37.6800078313  
Si -11.8276709120 -21.6399303225 38.8054030193  
O -15.3587754749 -23.1186802582 40.6610244020  
O -10.2548145922 -12.6157821023 39.2872578579  
O -11.2480405716 -11.6529449196 41.4693719129  
O -10.3917330995 -23.6673032824 41.7422362227  
O -5.7777615449 -8.7892328619 36.7568796164  
O -13.1425214997 -22.3426260018 39.5186602397  
O -11.9709447310 -21.8621392702 37.2191240837  
O -6.0341962244 -10.0199424011 39.2213830187  
O -11.7349977932 -25.4118602234 43.1551434671  
O -9.9587329791 -9.9676196882 39.7923249728  
O -8.2036813017 -9.6116066451 37.6263794689  
O -10.3415102175 -22.1619905705 39.2076157376  
O -8.5882626397 -11.7955521787 41.1153446784  
O -13.1235509773 -23.4827800601 41.8972782197  
Al -7.9135499244 -15.8651971163 40.2307168252  
Si -9.9036591438 -14.1364534465 38.8580708737  
Si -8.5570911606 -17.4366802879 37.6177348970  
O -13.4403942247 -15.7212830688 40.5700963129  
O -6.3001405841 -11.4801707383 37.1374809050  
O -8.1694223470 -19.0760915911 37.3230190306  
O -10.9598377825 -15.0249785578 39.6916317192  
O -7.7338737024 -16.5907131444 36.5024250429  
O -8.2865231653 -17.1957769092 39.1973703191  
O -10.1866416026 -14.2180032004 37.2659488479  
O -8.4050835191 -14.5246751463 39.2625247773  
O -10.1130126812 -17.2143240590 37.2314506028  
O -18.8585825952 -27.6907679787 52.6656933130  
Al -15.8677869044 -15.7091452086 49.6633054397  
Si -13.7010945732 -17.7254466572 50.8952369715  
Si -18.8207380192 -29.2780385100 52.2885338447  
O -24.5595407910 -16.0744146596 49.0210457677  
O -17.7482744826 -20.5856083708 52.8607564761  
O -12.4005068620 -16.9582282386 50.1874226297  
O -19.5867066289 -30.1587501083 53.4020827674  
O -19.4964021048 -29.4422715614 50.8188765868  
O -13.5285469881 -17.6694490365 52.5612380698  
O -15.0212096126 -17.1278114707 50.2477745480  
O -17.3375793564 -29.9128693601 52.4025141254  
K -17.4523466860 -18.9917143643 50.0336613099  
K -11.8210379166 -24.0525107846 46.3624397104  
K -19.3904110678 -26.6089267222 50.1956669898  
Al -17.6607594588 -23.4032664644 49.6717899269  
Si -15.7742999866 -19.8612286825 47.1258834730  
Si -13.7179723688 -23.2099609540 49.3491392866  
Si -13.7334780275 -20.3647232470 49.3732320285  
Si -15.7340871226 -22.7479194222 47.1173989858  
Si -17.0663494509 -21.9635924432 52.2160154919  
Si -15.6842138657 -25.2164070577 50.9643935464  
O -26.5447658792 -23.5229661381 49.2757404682  
O -13.6574793326 -19.4029995667 50.7222654921  
O -15.3068774149 -26.7615872518 50.7333913762  
O -15.7320923544 -23.8228132019 45.8580129341  
O -12.3977207698 -20.3480311047 48.5347886008  
O -16.9637186316 -23.2404535870 48.0319626712  
O -17.5519362374 -23.3143203073 53.0090749173  
O -14.6021944674 -24.3223714409 50.0692801476  
O -15.3905328774 -24.9962682644 52.5882923780  
O -17.3402670752 -21.9986354678 50.6572711185  
O -15.7100215136 -21.3356016149 46.4091043899  
O -14.0425767572 -21.7890541798 50.1889434340  
O -15.4554931382 -21.8828384163 52.5164143639  
O -17.1233050373 -24.8095486685 50.4602869394  
O -15.1132860408 -20.0215481549 48.6316398226  
O -14.2876095577 -22.8341218641 47.9014136277  
K -9.9583970478 -16.6502612809 46.3524344189  
Al -11.9965263499 -11.8589322567 43.0213126880  
Al -13.4669049416 -27.3563460863 47.0245498807  
Si -11.7421884879 -15.7772446744 49.3103187556  
Si -17.4426486691 -27.2796194131 47.1822332747  
Si -13.8133047200 -15.2403219545 47.1313263516  
Si -15.5066907354 -27.8901087496 49.4976978548  
Si -9.9307870913 -13.7275695091 44.2421183357  
Si -15.4041954952 -25.4008810677 45.6067600540  
O -20.7513128657 -12.3834308896 42.3863368683  
O -19.0231770579 -26.7879524616 47.3591268284  
O -13.8835388859 -16.2900837019 45.8329596842  
O -15.0150599910 -15.3245664636 48.1055215743  
O -14.2464482868 -27.8221194207 48.5259039020  
O -8.7101344124 -12.9137633271 43.4571431858  
O -16.6736360546 -26.1320168221 46.3735655945  
O -15.4503847714 -25.5888457429 44.0180798484  
O -9.8508560189 -13.5537832182 45.7991017778  
O -15.7191243157 -29.3841928489 50.1592477288  
O -13.5783545430 -13.7186355703 46.4937891772  
O -11.3517344201 -13.3226199109 43.6489246132  
O -14.1407919998 -25.8786417193 46.4434425504  
O -12.3917467163 -15.5860725164 47.8133670625  
O -16.9387626169 -27.5388367729 48.7027174134  
K -13.6090217735 -14.8767243229 43.4643469956  
K -7.9541492820 -20.2804783644 39.7631095216  
K -15.6552787893 -22.5512811587 43.3095451256  
Al -11.6224573887 -19.9341375873 46.9515512739  
Al -13.9056546850 -19.3676257207 42.8767562364  
Si -11.8596697098 -16.1145130006 40.5565691587  
Si -9.7773858855 -19.3472697022 42.8918041948  
Si -9.8333194968 -16.3420129416 42.7291581762  
Si -11.9067158883 -19.0321756917 40.4835705520  
Si -13.6058393305 -17.8964784915 45.6467812200  
Si -11.8783493165 -21.2560346811 44.2612484530  
O -17.2542621731 -19.3287886186 47.2039247467  
O -22.6721671972 -19.8690246079 42.6483154209  
O -9.6583472489 -15.3521965402 43.9967085458  
O -11.6088208075 -22.8604567655 43.9099426579  
O -11.8631502835 -20.0678855597 39.2136189125  
O -8.5914121043 -16.0588644922 41.7808166267  
O -13.3044882812 -19.0533839089 41.2458136796  
O -14.8999009579 -18.7330223690 46.3921354155  
O -10.6319050601 -20.3303734647 43.8560741685  
O -12.0671521513 -21.2106968953 45.8347206155  
O -13.6214400945 -18.0273543694 44.0190403564  
O -11.5482812875 -17.5659373827 39.8530771028  
O -9.7524763524 -17.8160128390 43.4124795645  
O -12.2427064616 -18.4295013883 46.4063029083  
O -13.2143513563 -20.9343729239 43.5030874843  
O -11.3123254176 -16.3626497581 42.0944224835  
O -10.6475192924 -19.5021232432 41.4889022419  
H -18.3621818934 -20.7158685361 53.5653691247  
H -20.2568346240 -30.8634636643 53.2475210243  
H -13.3711843147 -16.7334712858 52.8321013213  
H -16.6726628418 -29.5389690074 51.8583063102  
H -18.1604431122 -27.3451199145 53.2823394388  
H -18.4810076524 -23.6119222247 53.0289254157  
H -16.3137052763 -24.6924961813 52.9391979615  
H -14.9637817696 -21.7694489610 51.7001426621  
H -6.2911454032 -7.9645061881 36.7951398511  
H -8.6893250109 -7.5842580114 36.9917238185  
H -8.8380871261 -9.9396436363 38.3097008572  
H -6.8996444723 -11.8112597071 36.4263848275  
H -7.8584130431 -19.1754199726 36.3867638732  
H -7.1155035145 -15.9402055538 36.8239550906  
H -9.9040858553 -15.0305074865 36.8363616521  
H -10.7566652802 -17.1606273830 37.9611165013  
O -23.1579268429 -33.6541415038 61.1282489061  
H -23.3253515254 -34.5319976554 61.4436156941  
H -23.9264948349 -33.6649923749 60.4939934673  
O -27.7577824735 -30.4189732044 58.8378375759  
H -28.5958492159 -30.7886913956 59.1314328497  
H -27.3000741125 -30.5232011021 59.7793755272  
O -22.9373210947 -28.5580645606 61.5078896867  
H -22.0072851542 -28.6892771574 61.4721908067  
H -23.3430460508 -29.4980656811 61.6969496749  
O -19.7012300197 -22.3797452504 58.9530184916  
H -18.8474571486 -21.8277330095 58.9226824478  
H -20.2955689346 -21.8538365006 58.4112919887  
O -22.9904398771 -28.1756629330 58.7813276895  
H -23.2126920583 -28.4607345775 59.6785221889  
H -22.1515163509 -27.7304391935 58.8803400542  
O -17.1819568435 -24.6582440417 59.9585903086  
H -17.8664525600 -24.7518205322 59.2851941694  
H -17.4228946235 -23.9197933434 60.5565865709  
O -24.1525426277 -26.4864796850 62.7287753767  
H -25.0784813353 -26.7180812637 62.4555908976  
H -23.7655421566 -27.3002141365 62.3163172399  
O -19.9974349023 -24.1643656753 52.9745766722  
H -20.0927805884 -24.7951590276 53.7035221897  
H -20.9057345359 -23.9770701172 52.6847433881  
O -20.3873790429 -26.0201951769 55.0942577082  
H -20.7853287311 -25.4530350930 55.7736570223  
H -20.4853628903 -26.9296715666 55.2844382891  
O -21.9095952836 -24.5484976816 56.8233321641  
H -21.7103499269 -24.0017096353 57.6466475911  
H -22.7157488736 -25.1005715258 57.0404870108  
O -29.8050212516 -23.6996098528 58.2532884253  
H -30.3685389513 -23.9454542334 59.0230555321  
H -15.9424747941 -23.1088424393 57.7302918280  
O -15.2036607837 -20.8932765572 54.8625351571  
H -15.2415345104 -21.0410670961 53.9061093320  
H -14.2622881950 -20.5175759833 54.9460193094  
O -29.7776760404 -33.7282547653 59.6025620158  
H -29.8896185972 -32.8556818291 59.2231613621  
H -29.5188958772 -34.2619113511 58.7726030753  
O -20.5867228792 -33.2987177681 61.6935878970  
H -20.5283727001 -33.1092450266 62.6398483459  
H -21.5036245283 -33.5551398564 61.5146932850  
O -21.9286071107 -22.2174014251 55.2148014602  
H -22.0699790941 -23.1518064855 55.6319820946  
H -21.8736640898 -22.4421131092 54.3193678922  
O -17.0033115992 -22.5454462769 56.4126349586  
H -16.2717092543 -22.2263695776 55.7688544823  
H -17.8023240910 -22.2251993374 55.9364631256  
O -31.6937297141 -35.5890869496 60.1566150379  
H -27.3122584718 -21.3064451760 60.2215293692  
H -31.0843100320 -34.9045171708 59.9983713476  
O -24.0127763030 -31.0669431658 61.2369463929  
H -23.6497267769 -31.9425002663 61.4126393117  
H -24.9161668583 -31.0060679385 61.4839570295  
O -23.3438311653 -30.1995705790 56.9136199146  
H -22.7973764348 -30.9521897590 57.2907793830  
H -22.9917784312 -29.4270290945 57.4321341413  
O -20.5495191840 -26.9927611497 59.3353006693  
H -20.9640477558 -26.1426813989 59.6024819735  
H -20.3804404886 -27.5279740274 60.0992246859  
O -32.0332254090 -28.9060031709 60.2617906622  
H -32.1428229741 -28.4894121526 59.3180915679  
H -31.4774377748 -28.2370273220 60.7226744098  
O -19.8779072624 -31.7824784461 59.3783634439  
H -19.9207380694 -32.1622309465 60.3064542834  
H -19.1954117669 -32.2487384234 58.9177198232  
O -26.6594827175 -26.5281518828 61.4388131542  
H -26.8863018209 -25.6304779191 61.5908935850  
H -27.0758340151 -26.7854274829 60.6048520971  
O -25.2420864095 -20.3927152180 57.5608422112  
H -24.6790710346 -20.9690772742 58.0294900650  
H -24.8245220726 -20.2532732717 56.6624470768  
O -18.3423254736 -33.5237840387 57.1823220231  
H -28.6395013080 -19.3813566413 57.0496918790  
H -19.0723872139 -33.4066254372 56.5032428784  
O -24.2640658291 -26.2925480920 57.2947014573  
H -23.9217620754 -27.0479703859 57.8143362766  
H -24.5079408450 -26.5514281582 56.3770961632  
O -19.9990124375 -29.6214527024 57.7777569309  
H -20.4926005723 -30.1958668187 58.3615056582  
H -20.7093376455 -29.1869232331 57.2605233815  
O -17.4226030315 -17.2336697966 52.7009119391  
H -18.3073553216 -17.0039322720 52.9958679325  
H -17.0447466954 -17.8480443384 53.3907167563  
O -20.1055443319 -29.1358168290 61.1396149172  
H -19.2067861658 -29.1937552026 60.7663775231  
H -19.9174054576 -29.3254450950 62.0597015236  
O -29.5248758283 -26.2203259774 57.1105240513  
H -29.7018328204 -25.3087159184 57.4690336564  
H -30.2243246050 -26.2329107257 56.4713860303  
O -23.7155317455 -24.0766846840 61.7813943352  
H -24.5107676394 -23.5372447223 61.8722423820  
H -24.0224975887 -24.9735442067 62.1191729762  
O -25.8197536608 -22.3028242811 61.8519916720  
H -26.6073985415 -22.6372134469 61.4782740239  
H -29.8888146962 -36.6402116580 62.4952918943  
O -34.2195825754 -35.8733964651 60.7906303497  
H -34.2553176083 -35.0525250274 61.3518871817  
H -29.5084948681 -21.0155694729 60.5334543370  
O -19.2092365766 -18.7539513230 55.9539923963  
H -22.5048182130 -33.6285424885 56.7715447753  
H -18.7499733828 -18.2010922766 55.3150945022  
O -18.1235871142 -27.7857063495 57.9130284720  
H -19.0791764011 -27.7010231329 57.9090263554  
H -17.6606360732 -27.0330410316 57.5991024459  
O -21.7798959271 -33.3840721385 58.2116664127  
H -22.2788510158 -33.7115897255 58.9627836561  
H -21.1113717370 -32.7509240211 58.6109976070  
O -21.2668073215 -28.6080317683 55.4975109769  
H -20.8491637109 -29.2036493701 54.8673376970  
H -22.1139476788 -28.2846091745 55.1897482103  
O -23.5260689310 -27.3153175861 54.5579740838  
H -23.8325639884 -27.8984610006 53.9096311946  
H -23.0024018728 -26.7129030419 54.0588301015  
O -26.9068714532 -24.5545714252 52.6906665206  
H -27.8555159565 -24.2772705753 52.6478438730  
H -26.8642164817 -25.1602475012 53.4605937121  
O -26.0898152683 -30.7318824117 56.6105796457  
H -25.1525955618 -30.5292328375 56.9683688697  
H -26.6394441790 -30.6262973539 57.4130840663  
O -30.2865239088 -31.0815881963 59.2109949277  
H -30.8219260901 -30.6508103238 59.8835106011  
H -30.8033625443 -30.8352356980 58.4362651962  
O -23.8009305997 -36.2548667204 61.3494859117  
H -19.3215094348 -21.6677335759 61.8433471002  
H -19.9736186615 -21.6457745392 60.4266778661  
O -26.4564076925 -26.0056833426 55.0125344873  
H -26.4916379360 -25.2138663971 55.6128519773  
H -26.8644024483 -26.7436996035 55.4775003939  
O -29.6732586313 -24.6375423948 62.5706917710  
H -29.5950734140 -25.6300788587 62.6833913745  
H -29.6384249678 -24.4993338259 61.6217098828  
O -23.6036154270 -20.1582398411 55.2793956222  
H -23.1363033920 -21.0146591182 55.2272080217  
H -22.9076383196 -19.4873192397 55.3746459972  
O -18.3331643496 -25.2191117529 57.2699683767  
H -19.1866856078 -25.4855978194 56.9951830509  
H -18.1902983494 -24.2783349628 57.0725039436  
O -27.7073028845 -28.5941380206 55.3864922624  
H -28.6065193800 -28.8741269784 55.5481777730  
H -27.2360688652 -29.3763668568 55.7332356446  
O -26.9583743434 -30.9109944649 61.5511925884  
H -27.4818723659 -31.6964226594 61.7976429286  
H -27.1222543219 -30.1637679078 62.2150636900  
O -27.0919314998 -19.8685618010 54.5414053211  
H -27.1326964949 -19.0747767790 54.0459432860  
H -26.4857266592 -20.3813603104 53.9305222433  
O -21.8119946468 -18.1719516879 55.8598626138  
H -20.8397489551 -18.2721386464 55.9769645455  
H -25.8677934245 -32.3763093106 56.2847273121  
O -28.1254513279 -27.4303746586 59.1718542273  
H -28.0134140045 -28.4160974452 58.8916260230  
H -28.7299465443 -27.0288319837 58.4332235876  
O -25.0706215322 -33.3668469805 59.5635013578  
H -25.0889968146 -34.0397614250 58.8688940007  
H -25.9058646521 -33.3011819827 60.0247853171  
O -21.7144247834 -24.4866574092 59.6677965164  
H -20.9771993240 -23.8991809130 59.7961844169  
H -22.2548603056 -24.5354671476 60.4959945256  
O -27.3395790674 -23.8745294123 56.7223187411  
H -27.5740956360 -22.9416965590 56.8956103899  
H -28.1200034051 -24.3900213012 56.7057499784  
O -23.4378718102 -21.9304659296 58.8891447107  
H -23.9140055042 -22.7833830410 58.5975504952  
H -23.4188815448 -21.9988650430 59.8212376668  
O -17.7218897386 -22.6429102899 61.9272314641  
H -31.3369341650 -21.9376407740 61.6974299289  
H -31.7313584214 -23.2144328686 62.6130341647  
O -26.5872768476 -36.3158817469 61.5206964599  
H -23.3244212409 -21.9891558474 61.9531651797  
H -25.5790943942 -36.3503084298 61.7083156861  
O -25.2686634753 -23.9588773046 58.6019528235  
H -25.7396194357 -23.9228922162 57.7232481028  
H -24.9486759000 -24.8738018986 58.6860773144  
O -17.3759186438 -26.8035997405 54.6707537296  
H -17.1275001686 -27.6740018527 55.0666431037  
H -18.2290949109 -26.4431408960 55.1389213295  
O -17.6520719561 -30.4784579434 57.1358974706  
H -17.9051832401 -31.4005358757 56.9486784560  
H -18.5446694736 -30.0815129926 57.3730629003  
O -27.7619089616 -23.4950995285 60.0704094464  
H -28.4169968326 -23.4198051887 59.3798842482  
H -26.9302500561 -23.9002622293 59.6903684540  
O -15.8583940702 -18.3667736367 54.7708066446  
H -15.0176535985 -18.1805784789 54.3429003378  
H -15.9153576147 -19.3293189923 54.6702734756  
O -16.4627104202 -29.2303265979 55.0646420454  
H -16.7354866698 -29.6488837049 54.2422871264  
H -16.8487388648 -29.7691215340 55.7927871396  
O -21.4834988869 -20.5119741924 57.5589211952  
H -22.2527470305 -21.0827761669 57.8170577159  
H -21.7752978414 -19.7353968573 57.0026269878  
O -27.8377323899 -28.6679038540 62.6404086422  
H -27.4012063555 -27.8270108052 62.3833126718  
H -28.6100304929 -28.6427477399 62.0610622432  
O -27.7429358110 -21.1946531451 57.2952617536  
H -26.8128577781 -20.8752466511 57.4613495925  
H -28.2513965952 -21.0890197094 58.1123338786  
O -19.1703863421 -21.2742802282 55.1641346641  
H -20.0913228801 -21.6679045298 55.1249139214  
H -19.2611237362 -20.3880353575 55.5740314463  
O -30.2970102995 -27.1130151400 61.0822245652  
H -30.7069572387 -26.3513679901 60.6045319278  
H -29.5104749485 -27.4232053727 60.4888707581  
O -27.4471141016 -33.6534946080 61.0644551675  
H -28.1676484950 -33.6191305691 60.3420731212  
H -27.2361890435 -34.6028777231 61.2252602125  
O -23.4744374252 -31.0709337748 53.9316428359  
H -23.7445457467 -30.8085094007 54.8526899503  
H -23.5487973296 -30.2151251421 53.4216130964  
O -17.5324345564 -21.0219308315 58.7306608933  
H -17.3280923986 -20.5580702134 57.9009420798  
H -16.8369502265 -20.8798112966 59.4371945579  

