&CONTROL
   calculation      = 'scf'
   tprnfor          = .true.
   outdir           = './'
   disk_io          = 'none'
   pseudo_dir       = '/scratch/zhouwq/DFT-feldspar-surface/script-dft'
/
&SYSTEM
   tot_charge       = 0
   ecutwfc          = 110
   input_dft        = 'SCAN'
   ntyp             = 5
   nat              = 493
   ibrav            = 0
/
&ELECTRONS
   electron_maxstep = 25
   mixing_beta      = 0.5
/
&IONS
/
&CELL
/
&FCP
/
&RISM
/
ATOMIC_SPECIES
K 39.0983 K_ONCV_PBE_sr.upf
Al 26.9815385 Al_ONCV_PBE_sr.upf
Si 28.085 Si_ONCV_PBE_sr.upf
O 15.999 O_ONCV_PBE_sr.upf
H 1.008 H_ONCV_PBE_sr.upf

K_POINTS gamma

CELL_PARAMETERS angstrom
14.38000000000000 0.00000000000000 0.00000000000000
3.79226300000000 15.03099300000000 0.00000000000000
-16.02692595000000 -16.61449229999999 28.01481620000001

ATOMIC_POSITIONS angstrom
K -13.1256977082 -13.2791408016 39.4556669244  
Al -16.9068283812 -23.8632985870 40.2613730383  
Si -15.0600405218 -12.1443414334 42.7267569063  
Si -21.0153892125 -23.8835432422 40.4684425512  
Si -17.0735366830 -11.7504995698 40.4627595456  
Si -18.8850393374 -24.2861448774 42.7156310221  
Si -14.1419376766 -10.4446022593 37.6980173560  
Si -19.0669868395 -21.9467579936 38.9912613142  
O -22.5361412537 -23.5689692793 40.7595565127  
O -17.3568137743 -12.7641950512 39.2891788739  
O -18.2262123243 -11.7520443316 41.5569382241  
O -17.5786768483 -24.3103914243 41.8282016872  
O -13.1993953768 -9.8936471523 36.5037057203  
O -20.4437866380 -22.5973685915 39.7199667047  
O -19.2416396604 -22.0712564571 37.3335846184  
O -13.4626913869 -10.1565783843 39.0904337635  
O -19.1162488463 -25.7380893297 43.5035677383  
O -17.0327841579 -10.2750531959 39.6861888406  
O -15.6883008389 -9.8111637640 37.5086371985  
O -17.6625171752 -22.4052244613 39.5459546749  
O -15.6149551693 -11.8936802361 41.1540051248  
O -20.2536902903 -23.9149942721 41.9107253315  
Al -14.9949780851 -16.3032347203 40.2576910911  
Si -16.9987169574 -14.2960089814 38.9603649740  
Si -15.6100008625 -17.8369254995 37.6162140927  
O -20.5537744167 -15.9741774290 40.5760994878  
O -14.2826852949 -12.0591160870 37.4243526229  
O -15.4556472300 -19.4359207613 37.1823846533  
O -18.3725850582 -15.0901309103 39.5051330856  
O -14.6436550520 -16.9792279707 36.6925255814  
O -15.3409915182 -17.5618354208 39.1981707424  
O -16.9535249665 -14.3528175787 37.3307831368  
O -15.7062465869 -14.8441776610 39.6356821291  
O -17.1202251282 -17.4467761205 37.0967393580  
O -26.6526030887 -28.1356254667 52.8251376384  
Al -22.9804739961 -16.0199390938 49.6723502232  
Si -20.9581536877 -17.8266174843 51.0581231171  
Si -26.1376314350 -29.6183046788 52.3282348413  
O -17.4579463879 -16.4029847863 49.5309954649  
O -24.8308146701 -20.3133622563 52.6024598708  
O -19.7908034613 -16.7743219709 50.6752806432  
O -26.5242775485 -30.7739362124 53.3951190846  
O -26.6597703865 -29.8803047978 50.8764270235  
O -21.0559134109 -17.8070951835 52.6176679138  
O -22.2722486815 -17.5170312064 50.2839536820  
O -24.4923834075 -29.4828510388 52.4307690686  
K -24.7255884395 -19.2831915469 50.2253626950  
K -19.0007290036 -24.6470598916 46.3056896970  
K -26.7805514839 -26.4521513836 50.4598066854  
Al -24.8556968008 -23.4149930869 49.6905998749  
Si -22.7775006053 -20.0385026801 47.1956803865  
Si -20.8145276074 -23.3069402351 49.5748586629  
Si -20.7072200653 -20.3652298309 49.4479915666  
Si -22.8162984970 -22.9910479791 47.2521102305  
Si -24.2879293487 -21.7872384215 52.2991794748  
Si -22.8120478775 -25.2307039121 51.0161008928  
O -19.3222874237 -23.8745877705 49.3623462714  
O -20.4003067196 -19.3048642333 50.5942778032  
O -22.2932100222 -26.6985732650 50.5763483208  
O -22.8983492806 -24.1955307417 46.1746603995  
O -19.4650860710 -20.3049981336 48.4138446372  
O -24.0985616255 -23.0613116357 48.1994112298  
O -24.7120360608 -22.9537314856 53.2830598198  
O -21.6064481929 -24.1860709901 50.6493469276  
O -22.7403004314 -25.2866648852 52.6444020527  
O -24.6172371349 -22.1254834229 50.7737327116  
O -22.7003912839 -21.5632421661 46.5319693695  
O -20.8059120157 -21.8396608083 50.2156775728  
O -22.6696790507 -21.6798858289 52.5987779235  
O -24.2166564728 -24.9341871923 50.3216536204  
O -22.2141462828 -20.1245777921 48.8054917677  
O -21.4360204515 -23.1810508957 48.0790275624  
K -17.2713050891 -16.6019286045 46.4528875455  
Al -19.1287040811 -12.0367530959 42.9748881355  
Al -20.7030073097 -27.7400621235 46.9573143218  
Si -18.9523836696 -15.8868618767 49.5708565463  
Si -24.8360223126 -27.5002094865 47.3344737902  
Si -20.9790718975 -15.5780278944 47.2316994359  
Si -22.6956607468 -27.8433339084 49.5154672525  
Si -17.1743299056 -14.0635553366 44.2167449164  
Si -22.7419960849 -25.7508670129 45.6848013277  
O -13.5533108087 -12.6661712953 42.6680058346  
O -26.3911284344 -26.9805007779 47.4027498994  
O -20.9528917445 -16.5548343078 45.9755150775  
O -22.2906872671 -15.7972817565 48.1239313107  
O -21.4671547902 -27.9989279068 48.5109359859  
O -15.9068953794 -13.3044886092 43.4949231665  
O -24.0228228510 -26.5074639675 46.3081710093  
O -22.8546838823 -25.7302721501 44.0823538410  
O -17.0073510168 -14.0429270374 45.8271165940  
O -22.8253715755 -29.3513672590 50.1842209364  
O -20.8856436110 -13.9962285244 46.7640921323  
O -18.5753537451 -13.5428561884 43.6616513440  
O -21.3008011050 -26.2909747366 46.2073176710  
O -19.6949369921 -15.9560110695 48.1164073315  
O -24.1105806235 -27.4537976786 48.8198993874  
K -20.8577296967 -15.6617630151 43.2922559818  
K -15.2409970869 -20.8328116970 39.5850953753  
K -22.6931078959 -22.9037148177 43.4553822545  
Al -18.6455220229 -20.1176111947 46.8434140834  
Al -21.0654646205 -19.6436673850 42.7875890786  
Si -19.0102408228 -16.3667519269 40.3476586722  
Si -16.9570718938 -19.6501697838 42.6395908067  
Si -17.0278603495 -16.6817190423 42.6630432100  
Si -19.0642475943 -19.2043540304 40.3438166403  
Si -20.7089147756 -18.1455271515 45.5981955244  
Si -18.8789842630 -21.5904539253 44.1628764270  
O -24.3081020327 -19.6138994288 47.1817530207  
O -15.4183679014 -19.9858166631 42.3315078708  
O -17.0119466014 -15.6783378332 43.9192275684  
O -18.6616600250 -23.2273035306 43.9175466794  
O -19.3379073373 -20.3503181282 39.2181813254  
O -15.6695086475 -16.5799688165 41.8059499189  
O -20.2952892024 -19.1187626516 41.3372220227  
O -21.8970322439 -19.0121820919 46.3269809573  
O -17.4646406757 -20.9368654838 43.5328632318  
O -18.7564080095 -21.3361373768 45.7256229170  
O -20.9707840207 -18.2616699292 43.9627705970  
O -18.7655680344 -17.8293239177 39.5614828873  
O -17.0591036617 -18.1822347994 43.3378000688  
O -19.3158723734 -18.5991219370 46.1945909402  
O -20.2795330522 -21.0268752710 43.6413205917  
O -18.3331513464 -16.5480682933 41.7713716315  
O -17.7215691749 -19.5194626287 41.1784180361  
H -24.6693230722 -19.8906881993 53.4926906873  
H -27.4220097902 -31.2321525054 53.4267358057  
H -21.6722610614 -17.0771378189 52.9413591044  
H -24.1221559321 -29.6762072352 51.5790386138  
H -27.3384473607 -28.1634469728 53.6141949472  
H -25.5306860048 -23.3363971949 52.9127839919  
H -23.4846689351 -24.9212945431 53.1400241725  
H -22.0516889666 -21.7259660524 51.8069991753  
H -13.8213937728 -9.4796937762 35.8543222807  
H -15.4973766003 -8.0141096075 37.1980729504  
H -16.1601287870 -9.9551864551 38.3608479073  
H -15.2345094291 -12.3413671646 37.4217912683  
H -15.0413701930 -19.6075231263 36.3368975004  
H -13.7100656623 -17.1256919133 36.5113897841  
H -16.8535650855 -15.2221775403 36.9131222484  
H -17.7747312962 -17.4176821741 37.8298470768  
K -6.2156106401 -12.9287549451 39.6799455387  
Al -9.8294818291 -23.8258974294 40.3402147354  
Si -7.8192644387 -12.1008848716 42.6669652843  
Si -13.7108832558 -23.7578084846 40.4470712486  
Si -9.9776568392 -11.7932487639 40.4855716103  
Si -11.8086601059 -24.1434660460 42.7711003582  
Si -6.8870523776 -10.2316779644 37.6637592379  
Si -11.6532630990 -21.8264208345 38.8576706620  
O -15.2557698037 -23.3571066460 40.4571565824  
O -10.0068196972 -12.6770380005 39.0778671174  
O -11.2459841287 -11.8642498441 41.3665975586  
O -10.5208335417 -24.1909181383 41.8713445042  
O -6.1197889733 -9.1708138422 36.7104550638  
O -12.9305242050 -22.6586163479 39.5588414904  
O -11.5819500192 -22.0576606840 37.2374537777  
O -6.4415004984 -10.0544777490 39.1968900651  
O -11.9422098568 -25.6499067308 43.3924689815  
O -9.6503582900 -10.2900265293 39.9803444107  
O -8.4132563348 -10.0826153104 37.3823303986  
O -10.3371733708 -22.4535428820 39.5517177228  
O -8.6423362557 -12.2711812554 41.2743887921  
O -13.1497257301 -23.7125681891 41.9953300764  
Al -7.8929260191 -16.3352979903 40.1671632136  
Si -9.8155568569 -14.2376018122 38.6876607489  
Si -8.7274271153 -17.6347680796 37.5805952550  
O -13.3075226433 -15.7536354205 40.4351449411  
O -6.3445749411 -11.7932789887 37.3439100793  
O -8.4218856538 -19.2023791129 37.0713659388  
O -11.0461730630 -14.9839668028 39.6038252810  
O -7.8010165993 -16.6049523929 36.5744631417  
O -8.3390391515 -17.7044229123 39.1365381467  
O -10.0941131522 -14.3998278695 37.1002612207  
O -8.5067023256 -14.8588834026 39.2552409251  
O -10.2377201531 -17.1224903486 37.1309174338  
O -19.3744617939 -28.0449794879 52.7823149908  
Al -15.7506387274 -16.0221044668 49.6921206792  
Si -13.7155446452 -17.8456915354 51.0692490013  
Si -18.8569776830 -29.4922713392 52.3066234117  
O -24.6884987715 -16.5521380875 49.3412150957  
O -17.4171139072 -20.4346852410 52.7727899533  
O -12.5048416477 -16.8577144080 50.6515080706  
O -19.4070534476 -30.7162939159 53.2038979534  
O -19.2851004374 -29.6759120211 50.7821371564  
O -13.8737599766 -17.8074224444 52.6980304152  
O -15.0421625488 -17.3951524434 50.4309914459  
O -17.1968442327 -29.3505573325 52.5252190204  
K -17.4448134729 -19.2331644151 50.1903041536  
K -12.0772155971 -24.4463242805 46.5492585133  
K -19.3928991054 -26.8633982887 50.2132763029  
Al -17.6858916303 -23.3156059932 49.6778731441  
Si -15.4664203490 -19.9394965300 47.1061930593  
Si -13.6891494453 -23.3476974320 49.4946562462  
Si -13.4787877601 -20.3757585839 49.3950835852  
Si -15.7161405955 -22.9410589483 47.2026440694  
Si -16.8685227120 -21.9089698116 52.1643881877  
Si -15.6613417967 -25.2924499703 50.9715173139  
O -26.5562133117 -23.8685748914 49.4893734523  
O -13.3024734909 -19.3627011914 50.6645549707  
O -15.2758096444 -26.8136827743 50.5374477475  
O -15.7905377138 -24.0802339262 45.9941649408  
O -12.2012004151 -20.3927608188 48.4628305444  
O -17.0027777728 -23.0371816438 48.1197691094  
O -17.3983679785 -23.1440199286 53.0602219675  
O -14.4838371925 -24.2315238658 50.5106335663  
O -15.5936366949 -25.1938280854 52.5789274251  
O -17.3191981572 -21.8632619378 50.6130877512  
O -15.4503703253 -21.4785750975 46.5006728177  
O -13.8181190490 -21.8536876454 49.9525784276  
O -15.2371674982 -22.0387317554 52.3400010641  
O -17.0606288649 -24.7949288912 50.3880887560  
O -14.8000042816 -19.9524308940 48.6142706365  
O -14.3789399690 -23.4555496108 47.9834570180  
K -9.7334176935 -16.8496416123 46.5531805875  
Al -11.9428896860 -12.0846876295 42.9384688744  
Al -13.5827765340 -27.6557317926 46.9517113586  
Si -11.7494802124 -15.9613575009 49.4944961615  
Si -17.5227402118 -27.5549517585 47.1615023107  
Si -13.6955420300 -15.5620922427 47.1880763649  
Si -15.5503531949 -28.0261162665 49.4335039045  
Si -9.7593129572 -14.0099895667 44.3014297037  
Si -15.6539687342 -25.6146293358 45.5610558824  
O -20.6794753559 -12.2909911166 42.3013319117  
O -19.0961171241 -27.2992416559 47.4433313617  
O -13.6860083208 -16.4671950835 45.8760224588  
O -15.0124545542 -15.8191168232 48.0847906103  
O -14.3287857047 -28.2358906310 48.4007176947  
O -8.4712465950 -13.3140116929 43.5928949808  
O -16.9483256225 -26.3731823848 46.2310102012  
O -15.7595347116 -25.7323267756 43.9750971161  
O -9.5691702477 -14.0153886553 45.9126018045  
O -15.7452347439 -29.4648305979 50.1943062702  
O -13.6245695729 -14.0092376621 46.5623854557  
O -11.1434288098 -13.3852851718 43.6889457792  
O -14.3175899129 -26.2034572030 46.2680698009  
O -12.4530903115 -16.0244743005 48.0181153478  
O -16.7973552920 -27.5264289988 48.6355618968  
K -13.4421534117 -15.2708389813 43.3707775095  
K -7.8709876390 -20.4488768618 39.6074271859  
K -15.2929334958 -22.7866360465 43.6273932259  
Al -11.5283129797 -20.0720828070 46.8540597135  
Al -13.8495354525 -19.3820828698 42.7157110644  
Si -11.7573322303 -16.1723092544 40.3612658687  
Si -9.7459822725 -19.6281988771 42.6493559712  
Si -9.8707652880 -16.6244316681 42.7423651610  
Si -11.7643905238 -19.1323292169 40.3383737617  
Si -13.4800518893 -18.0617962613 45.4359497175  
Si -11.8129280727 -21.4004434378 44.1683193056  
O -16.9976636134 -19.4992985242 47.1846345447  
O -22.6265880787 -20.0938113428 42.3521587925  
O -9.7058982292 -15.6579693069 44.0406517860  
O -11.7273905575 -23.0506360230 43.9618100890  
O -11.8553150298 -20.2533898902 39.1217303153  
O -8.6212505881 -16.6162746715 41.7130207715  
O -13.1053357079 -19.1469582672 41.1620093580  
O -14.7346080980 -18.9318526739 46.0555574095  
O -10.4031333615 -20.8127444396 43.5704831279  
O -11.7912510517 -21.3674765102 45.7666045910  
O -13.5606772857 -18.0485720383 43.8351030775  
O -11.5283028060 -17.6099337108 39.5570005167  
O -9.9856121278 -18.1500946234 43.3730987372  
O -12.0943424182 -18.4829243799 46.0040101477  
O -13.0656781254 -20.7341707911 43.4604249214  
O -11.2423121701 -16.2960631479 41.9203304114  
O -10.4028354483 -19.4928581901 41.1703337605  
H -17.9402854703 -20.6718521946 53.5469593884  
H -20.3191141949 -31.1544223889 52.9604091795  
H -14.3130875186 -16.9653161779 52.9123037379  
H -16.6368743160 -29.6961568734 51.8306116633  
H -19.1023236521 -27.7591961822 53.7141678199  
H -18.3087247101 -23.4095508131 53.1222547748  
H -16.3732894475 -24.6565188341 52.9161457699  
H -14.6088534045 -21.8731668636 51.6334673996  
H -5.1626553735 -9.1269092206 36.7130164184  
H -6.9890530460 -7.4760628166 36.8256359796  
H -9.0739018281 -10.1111164921 38.0879835975  
H -6.0017790344 -12.1161669002 36.5024250429  
H -8.6997447152 -19.3750388893 36.2022662979  
H -8.2054870566 -15.7168837814 36.5322007905  
H -10.4611312312 -15.2685354236 36.8084268782  
H -10.8646045054 -17.4202461098 37.7947084931  
O -23.6038749474 -32.3921829330 60.7349208866  
H -23.6927432271 -33.3686210685 60.9306243884  
H -24.2384059849 -32.1644334251 60.0323893387  
O -27.5097862397 -28.4553007807 58.7054475588  
H -28.3838376204 -28.8320147252 58.6555811859  
H -27.2409048177 -28.6764835070 59.6525084310  
O -21.5680580213 -27.8791625494 61.2260606358  
H -20.8463690639 -28.4141826639 61.7035931885  
H -22.3502045802 -28.4850086773 61.2733656540  
O -19.7376425091 -21.1858224120 58.6438950055  
H -18.8340704508 -20.9395216815 58.4266601164  
H -20.3772639703 -20.5446363680 58.1910955333  
O -23.4381542472 -27.8023133884 58.3978448769  
H -23.1103233336 -27.6394112434 59.2700661687  
H -22.7633198216 -27.5941299025 57.7559053742  
O -17.2883001147 -23.5461740635 59.8987986865  
H -17.8722831473 -23.6273292857 59.1366356012  
H -17.7275951726 -22.9388462722 60.5749963073  
O -23.9003429252 -25.4199894667 61.2651212938  
H -24.5952404522 -26.0935835507 61.0569311883  
H -23.0722967919 -25.9409423033 61.4709101294  
O -19.7979044755 -24.0110327479 53.8126999306  
H -20.2934340884 -24.4897089580 54.5860689424  
H -20.4427807257 -24.1067990784 53.1234554097  
O -20.8941352783 -24.9503655005 56.1354483629  
H -21.4691865693 -24.2574488326 56.3813384068  
H -21.3873395211 -25.8077918695 56.3413972831  
O -22.7420447966 -23.3653560880 57.1515857676  
H -22.5228864279 -23.4287070948 58.0822379618  
H -23.4240385422 -24.1087576706 56.9693293777  
O -29.3050036811 -22.6138427758 59.2300450027  
H -30.2394271407 -22.7133569046 59.3386624472  
H -29.0531046035 -21.7718619634 58.8183872892  
O -28.8319647486 -21.7687953590 55.2545824992  
H -14.4500038935 -22.4400377975 54.5546923482  
H -14.4756972945 -20.9394690996 54.7578397869  
O -29.6280157799 -32.6940639217 59.4482403997  
H -30.0539770041 -31.8517627846 59.2100344197  
H -29.4999784520 -33.1442681189 58.6028332891  
O -20.9843693683 -31.6787127716 60.2461824074  
H -20.5992846728 -30.9415726995 60.7359614369  
H -21.8568566339 -31.8021139545 60.5188866326  
O -22.6375734814 -21.4119847614 55.3890536170  
H -22.7135659557 -22.1546923875 56.1486553477  
H -22.4130297488 -21.8422905119 54.5654980631  
O -17.0847170077 -21.8432670007 56.3071391650  
H -16.3293479260 -21.9383614146 55.6808079171  
H -17.8485153047 -21.5436732716 55.7758181652  
O -31.6737377765 -33.9013358853 60.8577858662  
H -31.4562046430 -34.6161768864 61.5668008431  
H -30.8023616380 -33.5606215666 60.5381768346  
O -23.5510110044 -29.5939224433 61.6145861153  
H -23.5183617504 -30.5673763777 61.3944697023  
H -24.4733190383 -29.3119939294 61.4751523730  
O -24.2529291224 -29.9383347115 56.8195701745  
H -24.5295038793 -30.5241408648 57.6123094306  
H -23.8626554910 -29.1684600696 57.2527592753  
O -20.8676275670 -25.8102110676 59.4865806767  
H -21.3308806142 -24.9480089903 59.6629139341  
H -21.2053969252 -26.4430818387 60.1462895771  
O -31.9267377898 -28.1335636556 60.2457021534  
H -17.8846454602 -27.5051422653 59.5389283619  
H -31.1737396867 -27.7331085257 60.6880961224  
O -20.4724801015 -31.0891242114 57.4396581205  
H -20.4666271894 -31.2525603827 58.4414679478  
H -19.9654899259 -31.8776216267 57.0444090851  
O -26.9563382079 -25.5278553879 61.5992980299  
H -27.1580686608 -24.6933286920 61.2291022444  
H -27.5104916424 -26.1920004150 61.1311304300  
O -25.9771239656 -19.5773722683 57.2646855828  
H -25.2382601702 -19.7501839086 57.8386691455  
H -25.6960333965 -19.3843307800 56.3703726073  
O -18.3753273699 -33.0236566240 56.6598857222  
H -32.5108101106 -33.6720795436 57.3104697967  
H -14.9696059727 -18.4597977249 55.9318206703  
O -24.4178450265 -25.3451951533 57.3616968891  
H -24.1356825937 -26.1790383265 57.7832798518  
H -25.0881228249 -25.5061100035 56.6948642213  
O -19.3749806332 -28.6983268062 56.9735716213  
H -19.7679731621 -29.6371680789 56.9201033435  
H -18.7936719485 -28.5316093009 57.7628690571  
O -17.8495838846 -17.0114437784 52.9091820870  
H -18.4851682433 -16.8929101626 52.1702312780  
H -22.1464789876 -31.6739615748 53.6967185915  
O -19.3828480616 -29.5960113932 61.4693092827  
H -18.8531709950 -28.9356797729 60.9123747367  
H -33.0360615966 -30.0301920716 61.9540456453  
O -15.9911195926 -25.6777655970 56.2839268888  
H -15.6576256252 -24.9238666794 55.8095159870  
H -16.9018709521 -25.7009088389 56.0661317034  
O -24.8264104218 -22.8549811502 62.7385405412  
H -25.5635305002 -23.3468412927 62.3984406726  
H -24.1474296650 -23.5659315189 62.5714921944  
O -30.5133994758 -36.0500950490 62.5180239166  
H -26.9817954998 -21.6747921996 61.8345424436  
H -29.5877978665 -36.2561362452 62.7634337065  
O -19.8868002197 -34.1863957122 60.5357755646  
H -20.4083373530 -33.3979563065 60.6444730515  
H -33.3784115877 -33.8459550528 60.6444730515  
O -20.6101159352 -18.8930394172 55.1803032151  
H -19.8335565950 -18.4109400542 55.5575427259  
H -20.7163083764 -18.5193151150 54.2689412230  
O -18.5320254646 -26.6013369169 58.5496851807  
H -19.4532156997 -26.3029847242 58.7981365792  
H -18.0737356145 -25.8035256362 58.3908811940  
O -22.4625620542 -33.1259488399 56.9378727412  
H -21.9573658968 -33.7709896112 57.5863757151  
H -22.0879174134 -32.2370235722 56.9890998337  
O -21.6895580892 -27.5940943128 56.5014819471  
H -20.7993912894 -28.0097137843 56.5155693976  
H -21.9620913886 -27.8035783400 55.5614648001  
O -22.3171801270 -27.7484502925 53.9136333112  
H -21.6017076632 -28.0298078657 53.3363680129  
H -22.5317158011 -26.8469959070 53.6934368559  
O -27.0820621416 -24.5493557581 52.9847420484  
H -28.0229031665 -24.2980363661 52.9760974765  
H -27.0669223632 -25.1806246532 53.7843649451  
O -26.9775031981 -29.7999836264 56.4352068962  
H -26.0736815793 -29.8426168861 56.1048721921  
H -26.9296575840 -29.3510920917 57.3197547072  
O -30.5197198321 -30.1179008097 58.8889045837  
H -31.2030865050 -29.4666848774 59.2554184219  
H -30.6127927339 -30.2293838784 57.9043839001  
O -23.9026942192 -35.1758541667 61.0425235685  
H -23.1812998721 -35.7464043980 61.4412944665  
H -23.6810182039 -35.4016014828 60.0885790557  
O -26.7375754132 -25.6692982697 55.3701636267  
H -27.1418503633 -24.9556822648 55.9237363948  
H -27.2997576974 -26.4348325554 55.5308085870  
O -33.1057427061 -36.9078927187 63.3159659243  
H -29.2134078065 -22.4532633100 62.5598860562  
H -32.2563335343 -36.5207932699 63.4165791356  
O -24.5292981242 -19.4799827646 55.0015686878  
H -23.9811188763 -20.2547735591 55.2264075984  
H -24.1613632421 -18.6551065692 55.3663215947  
O -18.5641530701 -23.9774149275 57.4946472026  
H -19.4802984683 -24.1620839390 57.1468632701  
H -18.1454327931 -23.2611935354 57.0109513903  
O -28.0332909760 -28.0081859088 54.8773429885  
H -28.9866378970 -28.1074733065 54.8553313472  
H -27.6812988984 -28.6322431371 55.5748318696  
O -26.6013124216 -29.0412052622 61.2218984345  
H -26.9545579400 -29.9498073940 61.1867598508  
H -26.7454897349 -28.6165643152 62.1592741846  
O -29.2059183065 -31.6196976830 53.4520291826  
H -29.7233257215 -30.7931192961 53.4977333542  
H -25.9922192009 -17.2783163434 53.0907981383  
O -27.3198199152 -32.3020976911 56.1737085976  
H -26.3463748810 -32.2730183878 56.2624755438  
H -27.4432972275 -31.3700413060 56.2644766021  
O -28.6681616878 -26.0702752037 58.1862129511  
H -28.0456904463 -26.8035513623 58.2086248040  
H -29.2214385023 -26.1345267798 57.4045195368  
O -25.1910348013 -32.0196558646 58.6096368874  
H -25.1272780324 -32.8842566665 58.2291156410  
H -26.0278947281 -31.9329208427 59.1110220550  
O -21.6475910958 -23.1001227773 59.9451431968  
H -21.0941871133 -22.4340118540 59.5367672189  
H -22.2914823856 -22.9174569623 60.6220611985  
O -27.5374634462 -23.5357042187 57.1410201798  
H -27.8234997661 -22.7462946857 56.6774950352  
H -28.1864754997 -23.8675837549 57.7244487378  
O -24.0780313985 -20.5511934787 58.7333022903  
H -24.5446078247 -21.4636218028 58.7070484054  
H -23.8515082175 -20.4450804554 59.6496269070  
O -21.2083582946 -36.3859376564 61.8010847489  
H -20.8832401558 -35.6550237791 61.2467915998  
H -34.8892322552 -36.3994903041 62.4780827929  
O -26.7620866047 -34.5063053749 61.7967624629  
H -27.0537463028 -34.9782780431 62.5934237933  
H -25.8421828956 -34.7542016021 61.5808082512  
O -25.3493466671 -22.8664768337 58.8744969639  
H -26.0710264379 -23.0026891924 58.2367997049  
H -24.9033275782 -23.7304458632 58.8103030137  
O -18.0410722346 -27.3229246911 54.9669904004  
H -17.1857923496 -27.7590416038 54.8245150494  
H -18.4887029559 -27.8752954077 55.6527130586  
O -30.6959328667 -31.5615420350 56.3578059612  
H -30.3430054417 -32.2850982527 55.9292593157  
H -31.6346654526 -31.9139908558 56.3518027863  
O -27.3630103527 -22.8987289852 60.8078394511  
H -28.1118033513 -22.7844624316 60.2029595481  
H -26.5775415097 -22.6674023243 60.3335886340  
O -15.1529078855 -19.3627852992 54.2620575824  
H -14.6810135802 -18.8171165143 53.5180641065  
H -16.0249501393 -19.5773949298 53.9071498824  
O -30.4426134816 -29.1076037728 54.8861476450  
H -16.5991994928 -29.3935543176 54.1330293433  
H -30.5593667416 -29.8489919504 55.5279270630  
O -21.7064904724 -19.5833221272 57.8137759803  
H -22.5727091580 -19.7938107227 58.1942171843  
H -21.8450226831 -19.8468614513 56.8885666647  
O -27.0223893472 -27.5630609614 63.3270918084  
H -27.1124608679 -26.7289648462 62.8757330983  
H -27.4340066052 -27.5179037846 64.1838649302  
O -28.2677000762 -20.0894887502 58.3360521966  
H -27.3010832335 -20.0974095020 57.9624946331  
H -31.9221806889 -34.7875303801 59.1936257416  
O -19.2515827429 -21.2077861850 55.0589590398  
H -19.7716025659 -22.0131462320 55.0812108081  
H -19.9258605370 -20.4650754589 55.0741670829  
O -30.0515196598 -26.0610858264 60.7491684217  
H -30.7166936355 -25.3448934749 60.7245153835  
H -29.6498429805 -26.0865551964 59.8499728640  
O -27.1291006644 -31.7337899001 60.3237434271  
H -27.9117007998 -32.1926635818 59.9372990482  
H -26.8262687657 -32.3904831861 60.9656829298  
O -23.3763704675 -30.8001455781 54.5376433315  
H -23.5606909642 -30.2472645926 55.2954841309  
H -23.5260075793 -30.2876990597 53.7381004772  
O -17.1710515686 -20.1780947110 58.4184957985  
H -16.7507668357 -20.5840127140 57.6559325016  
H -20.2060980750 -34.7985539905 58.9418125652  

