&CONTROL
   calculation      = 'scf'
   tprnfor          = .true.
   outdir           = './'
   disk_io          = 'none'
   pseudo_dir       = '/scratch/zhouwq/DFT-feldspar-surface/script-dft'
/
&SYSTEM
   tot_charge       = 0
   ecutwfc          = 110
   input_dft        = 'SCAN'
   ntyp             = 5
   nat              = 493
   ibrav            = 0
/
&ELECTRONS
   electron_maxstep = 25
   mixing_beta      = 0.5
/
&IONS
/
&CELL
/
&FCP
/
&RISM
/
ATOMIC_SPECIES
K 39.0983 K_ONCV_PBE_sr.upf
Al 26.9815385 Al_ONCV_PBE_sr.upf
Si 28.085 Si_ONCV_PBE_sr.upf
O 15.999 O_ONCV_PBE_sr.upf
H 1.008 H_ONCV_PBE_sr.upf

K_POINTS gamma

CELL_PARAMETERS angstrom
14.38000000000000 0.00000000000000 0.00000000000000
3.79226300000000 15.03099300000000 0.00000000000000
-16.02692595000000 -16.61449229999999 28.01481620000001

ATOMIC_POSITIONS angstrom
K -13.1717890328 -13.1614467366 39.5973418521  
Al -13.0365064147 -8.8617709485 39.9901095752  
Si -15.0242997414 -12.3986784088 42.5530650458  
Si -20.7903100377 -23.9428449429 40.4243392263  
Si -17.0869093607 -11.9163043505 40.3655081123  
Si -18.7700026317 -24.3515200771 42.5977286671  
Si -13.9283449951 -10.5829419887 37.5778738157  
Si -18.8096444163 -21.9420942503 38.8120465328  
O -22.2481861078 -23.4351460361 40.6680681272  
O -17.3130509392 -12.8621380393 39.1054817219  
O -18.3413280190 -11.9713898532 41.3640362040  
O -17.4930020634 -24.1170912339 41.6176903541  
O -13.2750970046 -9.6420418163 36.4014116200  
O -20.0253282982 -22.8282549099 39.5339483251  
O -15.2562474435 -7.0910898154 37.2037559559  
O -13.2419139555 -10.3730613854 39.0628191590  
O -15.1532334433 -10.8903741519 43.0798236327  
O -16.8146431156 -10.4179282455 39.8220206780  
O -15.4564638999 -10.0155631027 37.4395606660  
O -17.3922704501 -22.3962891878 39.3384049080  
O -15.6980114507 -12.4120209486 41.0698806339  
O -20.2311931527 -24.0010811410 41.9524273865  
Al -14.9151145729 -16.2586019073 40.3896008542  
Si -17.1163773183 -14.5026978530 38.8585511277  
Si -15.6587868169 -17.8248022176 37.9170932187  
O -20.4918318381 -16.1279818265 40.6826358316  
O -13.7394102126 -12.1811408940 37.2533822018  
O -15.3769463533 -19.3038946820 37.3678427365  
O -18.4139269893 -15.2907455888 39.5044927469  
O -14.7936653677 -16.7974513347 36.9220869896  
O -15.3319222380 -17.7682568340 39.4902452118  
O -17.0410892898 -14.6307295872 37.2281688672  
O -15.7519705424 -14.9231277762 39.6232755676  
O -17.2891057417 -17.4417751645 37.6040476583  
O -26.0199958040 -28.1419935604 52.5951760185  
Al -22.7337520915 -16.2034733255 49.7469496767  
Si -20.5596856717 -18.0560934103 50.9406209738  
Si -25.7133097335 -29.6304921119 52.1509410759  
O -17.1333635150 -16.6665019749 49.0529826582  
O -23.8163330841 -20.4258022031 52.7616640691  
O -19.2109234694 -17.1666320639 50.4602068971  
O -26.6309514648 -30.6162010928 53.0780714075  
O -26.1246973743 -29.7517389988 50.5717859079  
O -20.5357440360 -17.9105335782 52.5284207137  
O -21.9854783882 -17.5851238489 50.4014558254  
O -24.1170848872 -29.9624796347 52.2823705851  
K -24.4845505017 -19.1371265150 50.3247752714  
K -18.9683383664 -24.4333795256 46.6544341375  
K -26.4449654428 -26.8305538282 50.3301381076  
Al -24.5229441468 -23.5118120499 49.7332624379  
Si -22.6444436820 -20.2117996834 47.2115287682  
Si -20.5836922030 -23.6152430183 49.3795553728  
Si -20.5670333996 -20.6755265703 49.3810761771  
Si -22.4902849649 -23.2524327462 47.1436528707  
Si -23.6688598366 -22.0002397532 52.2368264982  
Si -22.5443002849 -25.4689053073 51.1129521146  
O -19.0369311251 -23.9132128044 49.2963913898  
O -20.1351388780 -19.5876349615 50.5550570605  
O -22.4321303519 -27.0996623245 50.8269608623  
O -22.7131548000 -24.1651340684 45.8298380332  
O -19.4035725776 -20.7586985821 48.2808943237  
O -23.7194818370 -23.4714864617 48.2078156746  
O -24.5060416889 -22.9079541449 53.3334064466  
O -21.3173055322 -24.7923062152 50.1782978038  
O -22.2821087977 -25.3444080235 52.7388520045  
O -24.3628191319 -22.0880063324 50.7548427212  
O -22.3310395308 -21.7143896418 46.6128121249  
O -20.7627523021 -22.1433511797 50.1176257161  
O -22.1459284328 -22.5141094200 52.3306361113  
O -23.9619891977 -24.8402716887 50.7968649455  
O -21.9377709250 -20.1915480649 48.7728344962  
O -21.0490739723 -23.6050036029 47.8124065545  
K -16.9757391519 -17.1019284306 46.3878931719  
Al -19.0525846271 -12.2380501050 42.8625887437  
Al -20.6065731498 -27.7403732170 46.9738030422  
Si -18.6077945900 -16.1361139034 49.4202969198  
Si -24.5692962661 -27.7441367718 47.2738817449  
Si -20.8709309305 -15.7087165775 47.2603545907  
Si -22.6531636965 -28.1190807630 49.5525268522  
Si -16.9526684597 -14.1752177969 44.3796310621  
Si -22.6403889194 -25.8201029781 45.6102018742  
O -13.4721401071 -12.8010777200 42.2748378998  
O -26.0914144421 -27.3495260228 47.4003486294  
O -20.9780749472 -16.7593183846 45.9943250255  
O -22.1869700783 -15.7983274250 48.1373784225  
O -21.3692165289 -27.9569900410 48.5596817661  
O -15.5796476073 -13.5113051551 43.6575691851  
O -23.8302954525 -26.4762826393 46.5159609031  
O -22.7562620051 -26.0331427288 44.0609024960  
O -16.9353095502 -14.1859351300 45.9831190990  
O -22.6353671594 -29.7047201036 50.1255499070  
O -20.6265461968 -14.2113046119 46.5230846707  
O -18.2626440363 -13.6752868516 43.5692824929  
O -21.1677362862 -26.2850065895 46.1408825354  
O -19.4559833231 -16.0350759746 48.0197962368  
O -23.9698740565 -27.7811065671 48.7751557238  
K -20.6194134217 -15.3641017478 43.3579707364  
K -15.3418437625 -20.7178341065 39.5509973418  
K -22.4005656234 -22.9971932693 43.5738449058  
Al -18.5306356601 -20.2340419614 46.7725766195  
Al -20.9637499570 -19.8185247487 42.8615481934  
Si -18.9960120373 -16.4690285424 40.4551555241  
Si -16.9080913477 -19.6825616417 42.6066934083  
Si -16.8682091418 -16.8019881754 42.7624557863  
Si -18.9405029219 -19.4095142929 40.3752732768  
Si -20.6821291294 -18.2819430559 45.5155117955  
Si -18.9052451834 -21.7434466369 44.0629035543  
O -24.1570591943 -19.7826752605 47.3865013060  
O -15.4005563837 -19.9837429573 42.5329744205  
O -16.8583486105 -15.8013885401 44.0368897964  
O -18.5955423712 -23.3231421169 43.8527924328  
O -19.0755255541 -20.3820943392 39.0957165574  
O -15.4636853922 -16.6200604752 42.0647267783  
O -20.1602409339 -19.4200388433 41.3653969236  
O -21.9288202594 -19.0720933919 46.3127334222  
O -17.6757876982 -20.9251632500 43.3392408307  
O -18.6865616888 -21.5957333209 45.7001694554  
O -20.8024956560 -18.3979114067 43.9233097273  
O -18.7853850575 -17.8707736026 39.7106017518  
O -17.0903824743 -18.2813075743 43.4138402842  
O -19.2690572068 -18.8049085980 46.0679639709  
O -20.3334207222 -21.3058307141 43.6067423043  
O -18.2477049817 -16.4971574172 41.8720648852  
O -17.5086908818 -19.7570590639 41.0225756157  
H -24.0730500484 -20.3143579292 53.6437305677  
H -27.3394843426 -31.2332611777 52.7851965147  
H -19.6548499248 -17.5681751160 52.8397853851  
H -23.6632171588 -29.9547298493 51.4392847021  
H -25.4458786154 -27.5592236055 53.1072868587  
H -24.8813398173 -23.6793847350 52.8280992047  
H -21.7119757353 -24.5672230627 52.9547261739  
H -21.5896131889 -22.3199494234 51.5591080731  
H -12.3111399763 -9.7137623090 36.4811337826  
H -15.0436699610 -7.9128583002 36.8335601704  
H -15.9489070234 -10.2795045919 38.2563926641  
H -14.3082658175 -12.5480790612 36.5483693415  
H -15.4934156654 -19.6418044924 36.4319077485  
H -15.2189291066 -15.9067969714 36.8534907111  
H -17.2402788499 -15.6126705096 37.0083726235  
H -17.9189854329 -17.7574110975 38.2939325178  
K -5.9841898382 -13.1807372387 39.6876296026  
Al -9.4841950118 -23.8655576415 40.2428832596  
Si -7.8303811659 -12.2224451929 42.6139772605  
Si -9.9070712190 -8.9311747297 40.3886403462  
Si -9.7125746219 -11.9081339923 40.3692701019  
Si -11.6707985436 -24.3304837175 42.6731285438  
Si -6.5093663434 -10.3605760734 37.7201890820  
Si -11.6447345923 -22.0738221658 38.7796293883  
O -15.2027749874 -23.6017159576 40.4587574290  
O -10.0050098363 -12.9306761545 39.1559884334  
O -11.0100923001 -12.0692439895 41.2780707394  
O -10.4183174507 -24.1483710838 41.6838053203  
O -5.3947228288 -9.7140179274 36.8440457159  
O -12.7738053141 -22.9498342515 39.5538788658  
O -8.0382533768 -7.1661857744 37.1936706221  
O -6.1643743432 -10.2592521727 39.2846965033  
O -7.8790822541 -10.8209725724 43.2619199380  
O -9.6958419562 -10.4183297392 39.6761035067  
O -8.0024070793 -9.7201227741 37.2885207855  
O -10.2383691807 -22.4327384071 39.4228495683  
O -8.3146812400 -12.2535745684 41.0884504549  
O -13.1423728295 -24.0813334281 41.9162482524  
Al -7.7824520795 -16.5067314294 40.1718857112  
Si -9.7543099757 -14.5088285340 38.7471322016  
Si -8.4280488737 -17.9204843256 37.5808353820  
O -13.2207151676 -15.8475481609 40.5186290934  
O -6.6798406067 -12.0196129605 37.4394806237  
O -8.1772544852 -19.3812521844 36.9059984809  
O -10.9981631761 -15.4052749663 39.3741838304  
O -7.5569163056 -16.8516909011 36.6434596319  
O -7.9442727122 -17.9211118733 39.1148466748  
O -9.9078297150 -14.5743252573 37.1565309801  
O -8.3569938104 -15.1603190582 39.2072955682  
O -10.0309802407 -17.6513899017 37.4241124959  
O -18.8035933951 -27.9595675632 52.4495790166  
Al -15.5548297607 -16.2375786414 49.6264859670  
Si -13.5635834944 -18.0236785545 51.0238649991  
Si -18.8401015451 -29.5817274859 52.2357859479  
O -24.3855704349 -16.5987363420 49.4916146376  
O -17.0649053628 -20.4686040208 52.4496590590  
O -12.4459393600 -17.0882271081 50.2854744864  
O -19.7944621887 -30.2818437648 53.3339667429  
O -19.1814864514 -30.0072232301 50.7472386997  
O -13.3905552706 -17.8421593462 52.6524863283  
O -15.0037008220 -17.6200657367 50.4437982190  
O -17.2632703786 -30.1437764576 52.4754326899  
K -17.1875541900 -19.3623185998 50.0696003169  
K -11.5720962782 -24.6128204786 46.3143342688  
K -19.3778958103 -26.7665534629 50.2446528970  
Al -17.3572005697 -23.6286742353 49.5650934984  
Si -15.3972889965 -20.1372335110 47.1645439193  
Si -13.2559973699 -23.6078892277 49.3865190557  
Si -13.4015271703 -20.6460535901 49.3902810453  
Si -15.2385919892 -23.1674509358 47.1149176735  
Si -16.7644682501 -22.0552813544 52.1097192750  
Si -15.3217828138 -25.5124600767 50.8657813934  
O -26.0930870895 -24.0568625355 49.2816636007  
O -13.3054733378 -19.6475863298 50.6894481360  
O -15.0025859239 -27.0749210857 50.5814710301  
O -15.1498335418 -24.2681774726 45.9074790953  
O -12.0571278370 -20.5092825455 48.4775583335  
O -16.4876315113 -23.4833930259 48.0454097830  
O -17.6057366232 -23.1337236954 53.0085946633  
O -14.0538619899 -24.7525583226 50.1006567418  
O -15.2092944533 -25.2343238845 52.5258593590  
O -16.9452931370 -22.2888876415 50.5485736316  
O -15.1901000590 -21.6248823104 46.5238050517  
O -13.4099895945 -22.1077210143 50.1093013136  
O -15.1631123951 -22.3455246088 52.4947228919  
O -16.8135998655 -25.0630846054 50.4317118269  
O -14.7536533600 -20.2319053619 48.5981821278  
O -13.7999181576 -23.4565076732 47.8810828754  
K -9.8229675885 -17.1238080487 46.6463498620  
Al -11.8202585892 -12.3729929741 42.8143232175  
Al -9.4920119369 -12.8940384649 46.9064073986  
Si -11.5018910916 -15.9747094987 49.5229912317  
Si -17.4254728217 -27.6323566882 47.1594212101  
Si -13.5093366362 -15.5565697853 47.1762300998  
Si -15.3846734016 -28.1664509279 49.3907612993  
Si -9.7839937496 -14.2740311907 44.3031906350  
Si -15.2564085836 -25.9122475763 45.5591348664  
O -20.6877281251 -12.7354236108 42.4398851884  
O -18.9576409894 -27.2729218208 47.3244684987  
O -13.6017070254 -16.6447982969 45.9827188874  
O -14.6761168526 -15.7438070815 48.2111774526  
O -14.2039847088 -28.3926716778 48.3104299443  
O -8.6397727667 -13.3009579379 43.5643198683  
O -16.6082754532 -26.4536339332 46.4161481151  
O -15.4595396857 -26.0016305332 43.9125040125  
O -9.4725222120 -14.2498629161 45.8839466497  
O -15.5825253279 -29.5911099598 50.2741084752  
O -13.2647056227 -14.0875759095 46.5253258560  
O -11.2472894249 -13.8126813259 43.7781929794  
O -13.9091056483 -26.5669294626 46.0632414734  
O -12.0344183267 -15.8274590841 47.9142204009  
O -16.8112541903 -27.8130803511 48.6998358894  
K -13.2064869199 -15.6609268725 43.2934566168  
K -8.1628887581 -20.5111664015 39.3736235341  
K -15.4868722886 -23.1137956010 43.5351044171  
Al -11.4142656071 -20.2356677659 46.9462684800  
Al -13.6780256300 -19.7560569249 42.9344667578  
Si -11.7793332722 -16.5082513180 40.3475786299  
Si -9.6646504929 -19.8867172016 42.5866027829  
Si -9.7543263537 -16.9005661074 42.6922586612  
Si -11.8111224748 -19.4307423210 40.3992059340  
Si -13.4182621892 -18.2592177345 45.5489694903  
Si -11.6011194551 -21.6911062104 44.1974547144  
O -16.9308425406 -19.7746798891 47.3592068708  
O -22.5549593538 -20.2743546169 42.4313206589  
O -9.5902195180 -15.9134916388 43.9590086074  
O -11.4927324631 -23.3462967743 43.9689338566  
O -11.8704563101 -20.4608993206 39.1270131092  
O -8.5000242699 -16.6203082226 41.7410355877  
O -13.0998066768 -19.4285198153 41.3037643280  
O -14.7807245970 -19.0361898645 46.1747404418  
O -10.2500303510 -21.1385648347 43.4305691315  
O -11.4524880496 -21.5749496577 45.7914177139  
O -13.3626478772 -18.3306666590 43.9224292617  
O -11.7367046007 -17.9331448054 39.5838146980  
O -9.7574217584 -18.3858203016 43.3420423123  
O -12.0119987841 -18.8830624217 46.0803705324  
O -12.8803599170 -21.0887883451 43.5471908093  
O -11.1980269003 -16.7124865999 41.8875930976  
O -10.4494894539 -19.7305132235 41.2219610647  
H -17.4196733690 -20.1660893309 53.3576592732  
H -19.1981658049 -30.5624906622 54.1104574056  
H -13.5250372543 -16.9303926781 52.8913326469  
H -16.6977860373 -30.2162947643 51.6782911055  
H -17.9355133914 -27.7372519972 52.8092092143  
H -17.2750002208 -23.3806713616 53.9607782448  
H -15.4046891619 -24.3168343798 52.5416276984  
H -14.5227469121 -22.5175276478 51.8292509436  
H -5.6931797641 -9.1421127177 36.0780405987  
H -8.2443331797 -8.0629501763 36.8398835147  
H -8.6412619835 -10.1832635682 37.8793932803  
H -7.2605413336 -12.3092293926 36.7359085254  
H -8.7970457320 -19.6181832391 36.2160335791  
H -7.5663941618 -15.9798632017 37.0893754635  
H -10.1806761537 -15.4976520191 36.9450591389  
H -10.6708485375 -17.5057175325 38.1825936340  
O -20.1545458440 -29.5926791612 57.3423266448  
H -20.5167057991 -30.4533541178 57.6409645855  
H -19.7651779449 -29.2378959715 58.1772482099  
O -23.2312572868 -29.9462782765 60.3446344758  
H -23.3011154209 -30.6875564095 59.7471985097  
H -24.0680017579 -29.5330465506 60.0768928752  
O -18.5945806365 -23.9479517691 60.4327610833  
H -19.4998120913 -23.7071682075 60.6452734748  
H -18.2775411980 -23.1237143784 59.9980511782  
O -21.5840516968 -23.2171520092 60.2437010951  
H -22.3022205078 -23.4483135494 60.8946053390  
H -21.4601599964 -22.2337201453 60.3495170580  
O -30.9988679848 -34.4434849754 58.1491533514  
H -27.0824722526 -20.3679624253 58.1814904535  
H -30.2616335062 -33.9906241954 57.6150308699  
O -18.2269114157 -16.9128828002 53.5711321726  
H -22.5518156301 -31.3473267309 54.1957024892  
H -21.2494817429 -31.4486021520 53.2863415554  
O -21.3970303580 -19.3944260612 54.8061853554  
H -21.0961887845 -18.8736689386 53.9540546889  
H -21.4525670369 -20.2657963318 54.4081348383  
O -25.0611176139 -23.4988012351 55.8280057657  
H -24.5992080445 -24.3967139631 55.9476690520  
H -24.7616640444 -23.1481258803 54.9705122630  
O -21.6963347713 -27.9854114359 56.0257103257  
H -21.0560655067 -28.5130572789 56.5636748391  
H -22.2853290977 -28.7093833935 55.7727765566  
O -25.4971027455 -28.2946661507 59.6165694239  
H -26.1754273274 -28.1123246555 60.2927670447  
H -25.9089845579 -28.4902610555 58.7519521537  
O -21.6734962213 -27.4952861995 60.7315591087  
H -22.2222489148 -27.0589869067 60.0226241742  
H -22.1849223400 -28.2906359705 61.0195514192  
O -24.3238654168 -26.6363211673 53.8235056454  
H -23.6740370549 -26.0552846833 53.3766293059  
H -24.2539008335 -26.3948130850 54.7607213108  
O -29.8182220067 -29.1643109694 58.6502183497  
H -29.5381563064 -28.2496920416 58.7788463772  
H -30.3611089384 -29.2851288561 57.8671642157  
O -18.1940506116 -21.5550508270 59.3481874847  
H -18.7272592015 -21.1266900795 60.0443956885  
H -18.5901335838 -21.4210703022 58.4074499567  
O -20.4165758993 -31.2730990691 62.9448896731  
H -33.8802976526 -31.5770059038 63.1325088993  
H -20.6296787257 -30.4134496860 63.3230896918  
O -16.4720189239 -27.4806343348 53.6374872658  
H -16.1188567480 -26.5746713586 53.5529625633  
H -16.8462097400 -27.6077188458 54.5105089810  
O -31.7589695211 -33.8360966207 60.8404166802  
H -31.0019359407 -33.6925393478 60.2685942604  
H -32.4634463861 -33.2726641657 60.5561063169  
O -30.0459586121 -20.7388281231 59.2744684969  
H -33.9045349376 -34.9594134240 59.8415684192  
H -16.5812359233 -21.0486151428 59.3052847948  
O -23.9460835101 -23.8212348996 61.5142130310  
H -24.5580815128 -23.1188850303 61.2602387115  
H -24.6016478641 -24.4022436245 61.8908122030  
O -30.7541586745 -25.3325044218 61.5762458383  
H -31.4580903360 -24.6509384463 61.5797677009  
H -30.8070782628 -25.7812027238 60.7388429609  
O -20.9714401454 -32.4043938694 57.8353874099  
H -20.5980969259 -33.2637144981 57.5385904429  
H -21.9178744471 -32.4510764502 58.2022214175  
O -26.0123540609 -30.9936052359 55.9061270817  
H -26.3786355034 -30.3379599970 56.4808310255  
H -26.1748849660 -30.6212326771 55.0407894305  
O -27.7919147775 -22.5636700850 59.1435192418  
H -28.0621303612 -22.8953662923 58.2018212058  
H -28.4652067588 -21.8913789455 59.3859674654  
O -27.9431680690 -33.1372354110 62.9557754303  
H -28.8477416311 -32.8038177791 62.8666883148  
H -27.3757871373 -32.3572004264 63.0412606409  
O -27.5423258507 -34.4197433487 60.5257702731  
H -28.2464375504 -35.1149354345 60.3667261594  
H -27.6582530203 -34.1282293905 61.4737916533  
O -25.5558076240 -32.9050591766 57.6467276334  
H -26.3407517233 -32.6822899675 58.2292757257  
H -25.6014916221 -32.3050430040 56.8841643364  
O -15.3224204726 -19.5137052934 56.8771206112  
H -15.5816560761 -20.1681101635 57.5245029924  
H -28.7918744328 -19.3747404965 57.2014521405  
O -23.4088512101 -30.0370694799 54.8115481916  
H -24.2458249805 -30.3720810464 55.2412954721  
H -23.6252405958 -29.9087203344 53.8772140502  
O -23.0937618639 -34.3493767887 60.8627484908  
H -23.2767958149 -33.7253817993 61.6377183492  
H -23.9029823652 -34.9005892322 60.7454864744  
O -28.4773937981 -26.6683784026 59.2391698285  
H -28.3598056581 -27.3561564873 59.9823628812  
H -27.6760229156 -26.1919429014 59.1769769366  
O -30.3565009609 -27.7965581223 63.0387793286  
H -30.4370631823 -26.9426327024 62.5989467142  
H -30.6945521602 -28.5323782568 62.4377414576  
O -18.3290336357 -21.3749848223 56.6273084930  
H -19.1891304194 -21.9281387054 56.4187181759  
H -17.5821310142 -21.9521961952 56.4356871502  
O -16.3501546722 -23.3249634640 55.7853432027  
H -15.5885797723 -22.7513425169 55.5729908959  
H -15.9722465868 -24.1396366682 56.2087671390  
O -28.5464001802 -23.7046705544 61.9657318258  
H -29.1253170179 -24.5221668419 62.1061260761  
H -28.5201397467 -23.5489416476 60.9708856814  
O -30.3537694250 -30.4765813982 56.3271497480  
H -29.8625656523 -30.0039152803 55.5896397010  
H -29.9633410271 -31.3827739704 56.5186110062  
O -17.5592687898 -27.7180092356 56.0935061809  
H -17.8658242991 -28.6207885783 56.1902773603  
H -18.3728936443 -27.2406924804 55.7227500991  
O -32.1348873402 -29.5575077201 61.4391333236  
H -32.3055205391 -30.3749072158 61.0063444344  
H -32.5849157853 -28.9875658487 60.8581860779  
O -27.0703237007 -29.1889901062 57.3746637469  
H -27.1966484870 -28.3541971763 56.8234122064  
H -27.9851828231 -29.3629751236 57.6257565424  
O -23.4081237902 -25.9466343541 56.5737601729  
H -22.9027999724 -26.7927155859 56.3865411584  
H -23.8303441983 -25.9547694595 57.4540657403  
O -29.4025021960 -30.5487574896 60.8565852313  
H -29.9570079252 -30.9904773089 61.5800078279  
H -29.9015460663 -29.9489743452 60.3098961037  
O -24.6197757082 -17.3760428064 52.7575819102  
H -24.7584236881 -17.8545658447 53.6062707564  
H -25.5555387639 -17.2256572892 52.5419478678  
O -26.2820265382 -25.1381766925 61.7324084280  
H -27.0987908425 -24.6740838230 61.9927060917  
H -26.3830815270 -26.0450996366 62.0137572250  
O -30.0632707997 -25.6894231752 56.7792288392  
H -29.4686055081 -25.8014691371 57.5568400946  
H -16.3444383646 -26.4132037250 56.6990264225  
O -22.0070203298 -20.6341989319 57.1426210265  
H -21.8735838703 -19.6721575558 57.0207165548  
H -21.5040591082 -21.1641349372 56.4756282739  
O -24.1278169997 -19.3585963893 55.1555701346  
H -24.3543859697 -19.9787879295 55.9142113573  
H -23.1217371818 -19.1745814541 55.2247267094  
O -20.1000935641 -24.2258904438 53.7769210082  
H -19.9290622391 -25.0592312343 54.2322017926  
H -19.3972923187 -23.8576403795 53.2047784191  
O -24.2597121422 -25.7875787056 59.1334339080  
H -24.5971237967 -25.0581245101 59.7155017463  
H -24.6406082122 -26.6209067742 59.6216921332  
O -25.6676291826 -31.3889380494 63.1309880950  
H -24.9500907847 -32.0074919951 62.9613783935  
H -25.3303859723 -30.7583901669 63.7475541784  
O -25.2877096299 -21.8563729763 59.8076304704  
H -24.8430868994 -21.7853275743 58.9605424708  
H -26.2408517716 -22.0603429070 59.5530158123  
O -27.8406440293 -32.1489134192 59.1706535923  
H -27.7626365893 -32.9956529126 59.7238261488  
H -28.4334865915 -31.5487540744 59.6974922216  
O -21.1538884579 -24.5671516933 57.8321056743  
H -21.4502275008 -24.0732764474 58.6499782227  
H -22.0014502162 -24.8752791993 57.4896845780  
O -25.1633315268 -35.3533347491 59.8703036164  
H -21.5053313361 -20.4587628810 58.9335682050  
H -26.0352918276 -35.0920014876 60.2435410105  
O -23.4191853101 -32.4171932089 58.9193206699  
H -23.1441485612 -33.1483375872 59.5142753236  
H -24.1966988485 -32.7697293191 58.4035278825  
O -27.7170519136 -23.6207384973 56.5737601729  
H -27.7894730108 -22.9955744265 55.8400121155  
H -26.8503351788 -23.9820287478 56.3967865769  
O -27.5208522365 -27.0232339173 55.4897468707  
H -27.9373671784 -27.7721019410 55.0304639696  
H -28.2440762761 -26.3637052047 55.6532733549  
O -29.1772788635 -32.8814678858 56.9337105399  
H -28.5716706425 -33.2215738812 56.2258161557  
H -28.6055417309 -32.5256409756 57.5947001176  
O -28.0410608560 -28.3156659431 61.2474319384  
H -28.3478178073 -27.9885478957 62.1727212963  
H -28.2361674340 -29.2880958283 61.2944968296  
O -20.5725238926 -22.6334512422 55.8988432295  
H -20.7034701952 -23.2786960176 56.5829650411  
H -20.5257649636 -23.2358695556 55.1221124398  
O -19.6422496100 -32.4924179526 60.2118442470  
H -20.2716943192 -32.3459095088 60.9386286216  
H -20.0971089632 -32.3314429605 59.4002150005  
O -19.9004353013 -26.6569668098 54.6523439933  
H -20.7649416626 -27.0658616458 55.0220595248  
H -19.6433574734 -27.1799245132 53.8829770981  
O -18.8584415424 -25.8619014721 58.4469108264  
H -19.6245355314 -25.4593216040 57.9648959031  
H -18.7780157099 -25.2324426843 59.2641430361  
O -14.3305338762 -21.4847929109 55.0022890688  
H -14.6659832422 -21.4398858437 54.1086164320  
H -14.7364853013 -20.8292595290 55.5493784080  
O -29.0291581173 -29.3024145684 54.3453816501  
H -28.3813294020 -29.7338338816 53.7040824861  
H -29.6469552541 -28.6847046284 53.8940229399  
O -31.8797904910 -30.4272679057 64.2166022440  
H -32.1131997958 -30.2042497213 63.2846693725  
H -31.2167963257 -29.7572936360 64.4530472927  
O -18.4060264525 -30.4086151107 55.4486051120  
H -17.4656350774 -30.5802752140 55.6340631953  
H -18.9429754441 -30.6834976896 56.1818729155  
O -26.5404165693 -25.2405303668 52.7034732937  
H -27.4844433516 -25.0702044022 52.7831154141  
H -26.2699490125 -25.6682871708 53.5640884474  
O -17.6435387148 -19.5382446910 54.6625093694  
H -17.8501037706 -18.6738688952 54.3799599375  
H -17.9639218096 -19.8038323225 55.5448960374  
O -30.5279633014 -32.3098153617 62.4685577554  
H -30.7792559524 -32.0884138520 63.3681535248  
H -31.1707389117 -32.9482681659 62.1485485121  
O -19.1337229402 -28.1953846970 59.6645948231  
H -20.0092936445 -28.2177689462 60.0756922403  
H -19.0496529677 -27.3659565787 59.2064325147  
O -24.6575012205 -21.2353051951 57.2165801412  
H -24.8646554336 -22.1235571558 56.7735458336  
H -23.6615228693 -21.2399808829 57.2221831045  
O -23.1380512224 -32.0181817254 62.4183712132  
H -22.2514940408 -31.9844587747 62.8538815417  
H -23.2540309418 -31.1867221089 61.8411859572  

