&CONTROL
   calculation      = 'scf'
   tprnfor          = .true.
   outdir           = './'
   disk_io          = 'none'
   pseudo_dir       = '/scratch/zhouwq/DFT-feldspar-surface/script-dft'
/
&SYSTEM
   tot_charge       = 0
   ecutwfc          = 110
   input_dft        = 'SCAN'
   ntyp             = 5
   nat              = 493
   ibrav            = 0
/
&ELECTRONS
   electron_maxstep = 25
   mixing_beta      = 0.5
/
&IONS
/
&CELL
/
&FCP
/
&RISM
/
ATOMIC_SPECIES
K 39.0983 K_ONCV_PBE_sr.upf
Al 26.9815385 Al_ONCV_PBE_sr.upf
Si 28.085 Si_ONCV_PBE_sr.upf
O 15.999 O_ONCV_PBE_sr.upf
H 1.008 H_ONCV_PBE_sr.upf

K_POINTS gamma

CELL_PARAMETERS angstrom
14.38000000000000 0.00000000000000 0.00000000000000
3.79226300000000 15.03099300000000 0.00000000000000
-16.02692595000000 -16.61449229999999 28.01481620000001

ATOMIC_POSITIONS angstrom
K -13.4261007015 -13.1249765795 39.5237829490  
Al -17.1150162869 -23.7920765130 40.1521152552  
Si -15.2618803100 -12.1489500722 42.6678457499  
Si -21.1814747439 -23.8157027404 40.1910958708  
Si -17.1963705975 -11.6943567768 40.3498198152  
Si -19.0945824859 -24.2052121677 42.6178993347  
Si -14.0135150891 -10.1602526416 37.6375053530  
Si -19.1323467248 -21.8714096406 38.7806699387  
O -22.6773740970 -23.4832987552 40.4872524992  
O -17.3864300749 -12.7141803552 39.1118050661  
O -18.3913386027 -11.6454835279 41.3557918438  
O -17.7933517657 -24.2562596043 41.7303899575  
O -12.9908006427 -9.5010460061 36.5313203248  
O -20.4957254371 -22.6261906689 39.2746111694  
O -18.8689562480 -21.7821965448 37.1402023443  
O -13.4531904559 -10.1334482761 39.1467035229  
O -19.3273906352 -25.6533124812 43.3351586718  
O -17.1561282601 -10.2361402487 39.4610297607  
O -15.5136820576 -9.5693691225 37.4107454265  
O -17.8435907416 -22.3605001611 39.5447540399  
O -15.6908722882 -12.0172115734 41.0747632161  
O -20.3402484966 -23.8043073174 41.6480263979  
Al -15.2805218972 -16.2172097563 40.1842122303  
Si -17.1607002493 -14.2387001906 38.6431572123  
Si -16.1857111019 -17.8892382574 37.7570885970  
O -20.7013303529 -15.7964705151 40.1070514222  
O -14.1540335665 -11.7416956865 37.1698980495  
O -16.3948328862 -19.5590937595 37.5678685242  
O -18.2904067382 -15.0743114495 39.4249306689  
O -14.9447416697 -17.4740261014 36.7439127586  
O -15.8359374589 -17.6578367743 39.3524923585  
O -17.1669201359 -14.3497330597 37.0042104223  
O -15.7444181081 -14.7967398235 39.2398727973  
O -17.5500535628 -17.1576719684 37.2597855883  
O -26.9671081668 -28.2388519049 52.9949874669  
Al -22.8664234580 -15.9606898503 49.5813420917  
Si -20.9120989615 -17.8706630386 50.9034012894  
Si -26.1296248412 -29.4328276049 52.2698039390  
O -17.3696035066 -16.2219484965 49.4656008797  
O -24.6508515089 -20.4068582539 52.6896259703  
O -19.8060150678 -16.8493505773 50.1987886408  
O -26.4741461654 -30.7684517400 53.1824466084  
O -26.4162658630 -29.6589164362 50.6798430561  
O -20.6722898840 -17.8257624116 52.5042479294  
O -22.3626703407 -17.4113185198 50.4105006089  
O -24.5550793127 -28.9146681784 52.4425352914  
K -24.6680272837 -19.1742682975 50.1400375691  
K -19.1597205540 -24.1397983439 46.2982457601  
K -26.3865155867 -26.5789262076 50.5171169952  
Al -24.9586452333 -23.3153879301 49.5293145759  
Si -22.9448901571 -19.9856804683 46.9176933675  
Si -20.8783949075 -23.3286702137 49.3494594559  
Si -20.9823450287 -20.4243374120 49.1768881882  
Si -22.9502748826 -22.9770088784 47.0253503040  
Si -24.1636507179 -21.8496231183 52.1905620303  
Si -22.9122173440 -25.2157549159 50.8553758902  
O -19.3904582283 -23.8416449317 49.2668557693  
O -20.5452418530 -19.3434815629 50.2921980422  
O -22.6037294814 -26.7588635518 50.4943849729  
O -23.1050324360 -24.0659211916 45.7693260302  
O -19.8473134022 -20.6946213767 48.0728643029  
O -24.2353517983 -23.0077788453 47.9693695676  
O -24.8371840525 -23.0953767003 53.0823936934  
O -21.6274203148 -24.3737926202 50.2788309728  
O -22.8316215523 -25.0828753719 52.4875190820  
O -24.6008296434 -21.9845082924 50.6654354364  
O -22.8066228262 -21.5240102100 46.2682298856  
O -21.2766638377 -21.8354140129 49.9547395705  
O -22.5113254523 -21.9914066436 52.4166816182  
O -24.3815833533 -24.7706289465 50.3457463623  
O -22.3739344473 -19.8869467213 48.4666725763  
O -21.5707180282 -23.3935970224 47.8378600161  
K -17.4579345253 -16.9004482535 46.5081967969  
Al -19.3006331965 -12.0924559867 42.7774237024  
Al -20.7570915804 -27.5256360619 46.8787927941  
Si -18.8981865481 -15.7671574852 49.4003663791  
Si -24.8165919823 -27.5408606227 47.1740689568  
Si -20.8643724161 -15.5627421363 47.1107554722  
Si -22.8519836945 -27.8894586690 49.3698702506  
Si -17.4612216750 -13.9748316551 44.3095139792  
Si -22.7292986529 -25.6699899851 45.5438467810  
O -13.7195225586 -12.5859777378 42.7701398502  
O -26.2715336948 -26.9013548985 47.2182523241  
O -21.1375687933 -16.5455205400 45.8876285969  
O -22.1081361500 -15.8292336616 48.1060818707  
O -21.6828045131 -27.8344592949 48.3278791726  
O -16.2023248718 -13.2365213238 43.4712306362  
O -23.9118814922 -26.4928506957 46.2982457601  
O -22.9358623568 -25.8012660381 43.9340353998  
O -17.2216457891 -14.0053700430 45.8941120258  
O -22.9235360204 -29.3222272245 50.0552727395  
O -20.8992801695 -14.0705420844 46.4447232277  
O -18.8797099962 -13.4652267766 43.7332091888  
O -21.3045835755 -26.0633918688 46.1895482732  
O -19.4638892534 -15.8189076330 47.8368194658  
O -24.3216763751 -27.5689543048 48.7218475307  
K -21.0469292389 -15.4490779055 43.5560755081  
K -15.1904770288 -20.7114969004 39.5582811940  
K -22.8945370440 -22.6132064018 43.2907351775  
Al -18.9040184108 -20.0864436932 46.7844228847  
Al -21.2082523534 -19.5789513371 42.7422851187  
Si -19.1312877219 -16.1632918435 40.3010740350  
Si -17.1419003814 -19.6022381790 42.5505837335  
Si -17.3475344269 -16.5098354423 42.6578404584  
Si -19.2163886031 -19.1326078138 40.3239661420  
Si -20.9036469294 -18.1398338960 45.5193538274  
Si -19.1462458593 -21.5293152506 44.0659451630  
O -24.4494903980 -19.5526328162 47.0896242966  
O -15.6261969904 -20.0381624848 42.4001041494  
O -17.5202970668 -15.6556283839 43.9881440163  
O -18.9936505494 -23.1543518955 43.8510315015  
O -19.3688165001 -20.3000319035 39.1743981698  
O -16.1661496066 -16.2245200809 41.6734798595  
O -20.5303843496 -19.0740421542 41.2141169161  
O -22.2850005160 -18.8984412873 45.9554244521  
O -17.8419469101 -20.7188923843 43.5163745114  
O -19.0876002731 -21.4047033798 45.6601482894  
O -20.9334990143 -18.2715134786 43.9075413879  
O -18.9141281220 -17.7028198707 39.6636169030  
O -17.2654200994 -18.1015052127 43.1551434671  
O -19.5303186501 -18.4616821082 46.2893610613  
O -20.4052899458 -21.0799294777 43.2190172481  
O -18.7501794740 -16.1810020124 41.8758268748  
O -17.8985557104 -19.6404210793 41.0945336721  
H -24.3297796461 -19.9241816537 53.4508285476  
H -22.4298880162 -16.5452245872 52.6575289952  
H -20.0433136602 -17.1604073418 52.7565413599  
H -23.9868348316 -29.1423033664 51.7270368857  
H -27.4572356201 -28.4152413548 53.8018141734  
H -25.6484621408 -23.2608435077 52.6376784968  
H -23.4978723880 -24.4564780531 52.8040064627  
H -21.9946855830 -21.8853032339 51.5825604764  
H -12.1089035190 -9.2377825759 36.6615491990  
H -15.2405161707 -7.6420077063 36.8333200434  
H -16.0236378995 -9.7729283858 38.2198933607  
H -15.0302826745 -11.9032094848 36.7626426643  
H -17.1053996945 -19.7805133266 37.0090129622  
H -14.6069997756 -16.5831845954 36.8547713884  
H -17.1359394985 -15.2895301548 36.7997022640  
H -18.1034218305 -17.1097495758 38.0755770361  
K -6.5435048643 -13.1286908438 39.5415523467  
Al -6.1867482339 -8.7877744179 39.9785034370  
Si -8.0412177406 -12.0994270671 42.5338548861  
Si -14.0334928279 -23.8726112174 40.3328508408  
Si -10.1928078877 -11.8262002513 40.2361597038  
Si -12.0689238738 -24.1511280956 42.4918326618  
Si -7.0309931748 -10.4039901129 37.5092775372  
Si -12.0202441578 -21.9479911799 38.6666896579  
O -15.4742024173 -23.2284944846 40.5563290318  
O -10.3579746715 -12.9410319456 39.0921946948  
O -11.4526512037 -11.8289061663 41.1887434969  
O -10.8927697511 -24.0098250628 41.5106737562  
O -5.9839345551 -9.6538523359 36.4726492954  
O -13.2224184014 -22.9839850694 39.2566816871  
O -12.2368071916 -21.8571193797 37.0375080324  
O -6.6021906077 -10.2010306915 39.0587370000  
O -8.3403435360 -10.5830957081 43.1861198496  
O -10.1336169515 -10.3437193077 39.5441137013  
O -8.5022179370 -9.8336931761 37.1891882515  
O -10.6084215063 -22.5581917667 38.9696498845  
O -8.8134269666 -12.2126051855 41.0962145611  
O -13.5464913180 -23.9900194416 41.8322038038  
Al -7.9761957198 -16.3124835238 40.0685510605  
Si -10.0862469778 -14.4760799852 38.7477725402  
Si -8.7235873443 -17.7751275582 37.5132796538  
O -13.5632350519 -15.7952021343 40.5315159088  
O -7.0747515069 -12.0425254925 37.1936706221  
O -8.4533036654 -19.2969057347 36.9482608322  
O -11.4291091162 -15.2641626689 39.2592430417  
O -7.9886621286 -16.6525621948 36.6673122469  
O -8.4443679265 -17.6605758967 39.1187687490  
O -10.0816306458 -14.5910774056 37.1846258386  
O -8.7734659835 -14.8621309494 39.4799997933  
O -10.3459879297 -17.4582812673 37.1850260502  
O -18.9349512563 -27.7199926290 52.5894129706  
Al -15.6810362647 -15.8174891641 49.6410536714  
Si -13.6742537835 -17.7785384356 50.9626326151  
Si -18.5665763615 -29.2853731364 52.1402154035  
O -24.5236935622 -16.1320922888 49.0844392947  
O -17.9780775349 -20.5283202194 52.8028858701  
O -12.3537268452 -17.0825419688 50.3142096835  
O -19.1460382046 -30.3627064127 53.2570460619  
O -19.2250300656 -29.5820571358 50.7542023825  
O -13.6826902491 -17.6801587256 52.5893329283  
O -14.9933867764 -17.3265405611 50.2043916040  
O -16.9744396108 -29.5387246237 52.3169488725  
K -17.7624629229 -18.9825040747 50.0970548368  
K -12.1672499841 -24.4918602770 46.3429894237  
K -19.4766675078 -26.5518288544 49.8718957569  
Al -17.7045265503 -23.4152790238 49.6637856937  
Si -15.7802650123 -20.0704892663 47.2609949294  
Si -13.7357014440 -23.4296076749 49.4953766272  
Si -13.6333497583 -20.3694962529 49.3962842202  
Si -15.7334985698 -23.0558135879 47.1882364496  
Si -17.1690774546 -21.8082271346 52.1940838929  
Si -15.6536999233 -25.4007827419 50.9812824784  
O -26.6038944995 -23.7799825585 49.3248864600  
O -13.4882632973 -19.3224750341 50.5945979725  
O -15.3236343134 -27.0123564998 50.5802703951  
O -15.7840402203 -24.0116793100 45.9117213389  
O -12.2901781457 -20.4567651681 48.5317469922  
O -17.0356581931 -23.2634066844 48.0659006200  
O -17.4849600573 -23.1797616040 53.0849550481  
O -14.3592834855 -24.5529418640 50.4760552788  
O -15.6829358215 -25.2631490681 52.5879722087  
O -17.5685778532 -22.0495995541 50.6813638604  
O -15.5646752931 -21.5195802136 46.6333029619  
O -13.8514606014 -21.8851379480 50.1572466705  
O -15.5387797625 -21.3576387316 52.3407214451  
O -17.0025853380 -24.8395497554 50.3575125852  
O -14.9830454073 -19.8748731412 48.6786246715  
O -14.2986731915 -23.3975213778 47.9684891019  
K -9.7132180242 -16.7258102687 46.3707641129  
Al -12.0324457680 -12.0363382319 42.8303316839  
Al -13.5302008383 -27.4882922245 46.8880777046  
Si -11.7031604012 -15.9083863113 49.2798226271  
Si -17.5565666393 -27.4874185110 46.9994165884  
Si -13.8596705164 -15.4569464515 47.0153450125  
Si -15.4619125567 -28.0262166494 49.2631738220  
Si -9.8003256426 -13.9908681774 44.1555925748  
Si -15.5989133590 -25.5863408935 45.4159391345  
O -20.8841382155 -12.3012981036 42.1397264434  
O -19.0872270461 -27.1267658308 47.3692922046  
O -14.1555676226 -16.5665879071 45.8413641290  
O -15.1008852456 -15.5321219618 48.0460501217  
O -14.0979929620 -28.0046606575 48.5094151816  
O -8.4594396588 -13.3776582261 43.5191759931  
O -17.0030756092 -26.3283301368 46.0694047329  
O -15.6213399097 -25.6155202200 43.8084489809  
O -9.7467523970 -13.7873514213 45.7136165672  
O -15.8400162430 -29.4928074850 49.9081549333  
O -13.6183799337 -14.0333135976 46.3957373205  
O -11.1034076440 -13.2486393853 43.5553551271  
O -14.3144350927 -26.2090278210 46.1368804188  
O -12.5258444430 -15.9306292269 47.8063233373  
O -16.6556566791 -27.5426887733 48.3046668963  
K -13.5662357262 -15.4086741671 43.3920687698  
K -8.0664915561 -20.6533277183 39.4201281290  
K -15.6308117979 -22.7232206114 43.2047697130  
Al -11.7622862201 -20.0927723774 46.9013647317  
Al -14.0751196177 -19.5402685603 42.8771564481  
Si -12.0617504897 -16.3500326325 40.2427231750  
Si -10.0447807825 -19.6260743979 42.5555463581  
Si -9.8717315130 -16.6866302538 42.5262508646  
Si -12.1980075975 -19.3072952864 40.2990729767  
Si -13.8883371357 -18.1590280602 45.6134836098  
Si -12.0862248849 -21.5538195534 44.2169050011  
O -17.3553492696 -19.6923836686 47.4290037843  
O -22.8369752003 -20.0533916118 42.4766246188  
O -9.7013317434 -15.6250444248 43.7681076456  
O -11.9097101233 -23.1253264160 43.8029260600  
O -12.3005101697 -20.3965186436 39.1663939366  
O -8.5093787421 -16.5937234980 41.7143814911  
O -13.3552292727 -19.1258105103 41.3523500235  
O -15.1428459845 -19.1167152259 46.1313574979  
O -10.7643817641 -20.6489251450 43.6121051405  
O -12.0121270242 -21.4946516491 45.8414441714  
O -13.8878523990 -18.2222472006 43.9714952112  
O -12.0915279704 -17.8098912948 39.6319201395  
O -10.2043558497 -18.1226149509 43.1872404423  
O -12.5067710656 -18.6877076939 46.2849587330  
O -13.3816845583 -21.0333656407 43.4210440940  
O -11.2254988974 -16.3188926949 41.6762813411  
O -10.7643866250 -19.6784859835 41.0623566547  
H -18.8117032712 -20.7266056838 53.3134759059  
H -19.8964791520 -30.7608773527 52.7589426298  
H -14.2961551433 -17.0500138026 53.0230823254  
H -16.3423305685 -29.6639069904 51.5999296625  
H -18.4277339888 -27.3532101537 53.2738549516  
H -18.3056770074 -23.6200649536 52.7858368534  
H -16.4329445262 -24.7379415801 52.8614768571  
H -15.1087063892 -21.5433205951 51.5340548232  
H -5.0543497045 -9.6187987455 36.7018905343  
H -8.6248542269 -7.6441641160 36.6068002439  
H -9.1044201292 -9.9543305029 37.9488700245  
H -7.9160034338 -12.2598359427 36.7525573304  
H -7.8069969152 -19.2391662657 36.2460494536  
H -8.3948148611 -15.8102511318 36.4540794744  
H -10.5264010982 -15.3652932146 36.8626955793  
H -11.0074509233 -17.6264268729 37.8428139346  
O -22.7238913303 -31.6385524974 61.7966023783  
H -22.8880364374 -32.5651271406 61.5593569062  
H -23.2996738078 -31.1781121760 61.1635475745  
O -27.1866233212 -29.1627075881 59.3417840982  
H -28.0547227939 -29.3975904280 59.5789495279  
H -26.6315185299 -29.2948201367 60.1411668678  
O -21.2076809861 -27.2432825355 63.4563601746  
H -20.3032611510 -27.6152843712 63.4517977617  
H -21.8821942172 -27.9757781345 63.5360022950  
O -19.7830910682 -22.7428608211 58.7469094867  
H -18.9862612421 -23.1010360016 58.2499266473  
H -19.9037460395 -21.8201121284 58.4549951019  
O -20.7392560984 -27.2401352972 60.6328669133  
H -21.2283149334 -27.2065937199 61.4510596310  
H -20.1496360381 -26.4550424808 60.5915650700  
O -31.1187964711 -23.7771310403 61.6912666694  
H -30.9229722420 -23.2129938491 60.9459124738  
H -32.0036208502 -24.1876147208 61.4488984881  
O -23.5014117321 -24.7499873834 64.0425101719  
H -23.8682020910 -25.1628383761 63.2228766922  
H -22.5840050188 -25.1233408957 64.1340785997  
O -19.8287255885 -24.2404594788 52.9014179808  
H -19.8147864445 -24.5153554930 53.8406347045  
H -20.7203416273 -24.3505132533 52.7297271786  
O -20.0373822515 -25.0850675104 55.8558604972  
H -20.7737107735 -24.7942759936 56.3811783221  
H -20.1044463668 -26.0918160207 55.9308601623  
O -22.8005835307 -24.2855389656 56.4409699441  
H -23.6252929813 -24.1574647299 56.9761329759  
H -22.8791348217 -24.9750574166 55.7906259966  
O -30.1586951147 -21.8539053908 60.0454362388  
H -29.9140124009 -20.9424615787 60.3548798943  
H -29.7658734425 -21.9422759735 59.1906641753  
O -14.6485918088 -20.8129504406 54.8518895270  
H -14.8991879544 -20.9479497445 53.8985053105  
H -28.1606406973 -20.3689838495 54.9183246625  
O -28.7581763110 -32.6825001527 59.9253727408  
H -29.1911677733 -31.8263501571 59.6748402416  
H -28.5988518263 -33.0764907410 59.0441066655  
O -19.9208735416 -31.6342902985 61.1494601240  
H -19.5978483043 -30.7175044688 61.4141601160  
H -20.8002966566 -31.6496336078 61.5066890518  
O -22.1824917716 -21.8670471429 55.0078920320  
H -22.4126879877 -22.6321526113 55.5114383426  
H -22.3190834297 -22.0577487888 54.0341770632  
O -17.2356800726 -21.0471185765 56.3020164558  
H -16.3491434214 -21.0002621310 56.0249899447  
H -17.9390206027 -20.8591263972 55.6415071321  
O -30.4522232766 -34.7099049709 60.7374021989  
H -29.9568400468 -35.3821797924 61.1888409514  
H -29.7835666952 -33.9652243794 60.7299582620  
O -22.9481109081 -29.3737151162 64.0698046071  
H -22.5554755138 -30.1194345333 63.6446997818  
H -23.7508434654 -29.1612285764 63.5087078597  
O -23.8282736107 -29.4602097685 56.2839268888  
H -23.4882392001 -30.2383380188 56.7790687545  
H -23.7887658079 -28.6803906325 56.8995324642  
O -19.0236542329 -24.9915463329 60.2745974353  
H -19.1104782006 -24.0927498400 59.9465039164  
H -18.4949123814 -25.3959782255 59.5201984562  
O -30.9723205523 -28.2531821261 60.4229158765  
H -31.5142166569 -27.7615969592 59.8105920367  
H -30.4060979387 -27.5327144931 60.7731010790  
O -20.4747526469 -31.9337372396 58.5949090983  
H -20.1653052786 -31.7979914891 59.5388483195  
H -19.7262540859 -32.4772289131 58.2563300339  
O -25.0343703632 -25.9694943059 62.0947600650  
H -25.8946491954 -25.4934107375 61.9958277426  
H -24.6039921537 -25.9190015832 61.2255803818  
O -28.5193189978 -34.1699462786 57.8196190705  
H -24.2616503845 -19.9535098504 58.2021413751  
H -24.3137800376 -19.1202236817 56.9226646981  
O -18.5899336165 -33.4284158939 57.3547332063  
H -28.5089555290 -19.1608977276 57.5796521592  
H -15.1729829866 -18.5044438598 56.4502548547  
O -23.2742872271 -25.6652421153 59.6806032895  
H -23.0447025320 -24.7156205344 59.5639015695  
H -22.5024417065 -26.2438153079 59.6851657024  
O -19.3772051392 -29.2451723343 57.5709275450  
H -19.7977653055 -30.0651639889 57.9223934248  
H -19.9023630309 -28.9889613226 56.8013205228  
O -17.3588334558 -17.3457191108 52.2451509007  
H -17.9764888746 -16.7526923557 52.7545403016  
H -16.9322838683 -17.8668389251 52.9333548712  
O -19.1042806337 -29.1151200944 61.7100766174  
H -19.7072605155 -28.5388625500 61.1401752135  
H -32.5518707657 -28.9983602314 61.4028741472  
O -29.5808889571 -24.5176281062 58.4932553366  
H -28.9281163185 -24.0007594872 57.9897090260  
H -30.4263714310 -24.6000369992 58.0010750372  
O -23.0711479005 -22.4765152895 62.7623131138  
H -24.0466417696 -22.4602876098 62.5959851480  
H -23.1368382393 -23.2804855289 63.3724758107  
O -25.7948405467 -22.0219968139 61.8635177678  
H -25.7738994774 -22.2967687637 60.9323853197  
H -26.3860405166 -22.7368024844 62.1487085967  
O -33.5340058833 -34.4470338932 61.6007387919  
H -34.1460479363 -33.7300445358 61.3447634141  
H -32.6352363378 -34.0099259686 61.4906805854  
O -19.9730608894 -18.2801173613 55.7111439610  
H -23.4080084404 -32.8436533412 56.4806709408  
H -24.6155426606 -32.8261240833 55.7426005974  
O -18.1261638078 -26.7129820187 58.3698300607  
H -18.7558311057 -27.4884465222 58.1066508731  
H -17.9824005916 -26.3830086011 57.4330146070  
O -23.0115433088 -31.4925809751 57.8261825417  
H -23.6752597981 -31.8572847081 58.4712436953  
H -22.1582154657 -31.6232324878 58.2331978000  
O -20.4967785320 -27.7694410771 55.7269123004  
H -20.2272460239 -27.8531630929 54.7854543914  
H -21.4682489578 -27.6682446671 55.6441485291  
O -22.9254692065 -26.4987059868 54.8694988400  
H -23.8823714067 -26.5643288777 55.2464982237  
H -22.9043968957 -26.5949276367 53.9318829629  
O -29.4045933381 -25.6406328360 55.3412683448  
H -15.0255446437 -25.4642701518 54.3597092275  
H -28.9231510897 -26.5351535175 55.3623995204  
O -26.4914910234 -29.7836796325 56.7592982985  
H -25.5935710386 -29.4658150821 56.4802707292  
H -26.6263594768 -29.6770508054 57.7442992361  
O -29.9037474908 -30.3523964180 59.2724674386  
H -30.3688045677 -29.6937354694 59.7952239089  
H -30.4791167101 -30.5416242008 58.5214302375  
O -22.9008020374 -34.3909497914 60.9066917311  
H -22.3353475264 -34.9621952996 61.4097577877  
H -22.5385554557 -34.4718536353 59.9579499699  
O -25.7359306197 -26.4662170485 55.3541551603  
H -26.0523021604 -26.7368239837 56.2481479664  
H -25.6430698585 -27.2677663195 54.7915376086  
O -27.2542993236 -24.4489383211 61.4380927732  
H -28.0272676299 -25.0792238698 61.5673611394  
H -27.4086052601 -24.1724480447 60.5292120934  
O -23.5371937612 -19.4309261689 55.3585574885  
H -22.8229452212 -20.1332592387 55.2647478754  
H -23.0674374408 -18.5902774125 55.4589305728  
O -17.6798083501 -24.0289150791 57.2371510206  
H -18.5123565945 -24.3932816298 56.7269611964  
H -17.4547479763 -23.1478025830 56.8840042518  
O -28.3835909729 -28.4611377085 55.3230186931  
H -29.2943042989 -28.9409230221 55.3567965572  
H -27.7021541263 -29.0173569061 55.7971894679  
O -25.2512487847 -29.9949258261 61.2756868816  
H -25.7804139281 -30.8722202978 61.4192828252  
H -25.3925428728 -29.5549421441 62.1089275577  
O -27.3189668857 -19.0446592136 55.2274481487  
H -27.2535183820 -18.6498553773 54.3214489928  
H -26.4852833909 -19.0887944286 55.6456693334  
O -26.0191644633 -32.0211453141 55.3827302728  
H -26.1699764168 -31.5767595494 54.5475685807  
H -26.3065210484 -31.3009480098 55.9943337316  
O -26.4503139529 -26.5909943009 57.9716194590  
H -26.6840304236 -27.4137279572 58.3065966184  
H -27.1660416822 -26.0146200527 58.2177496299  
O -24.8097510804 -32.7811941708 59.2319660187  
H -24.7041608539 -33.7304860550 59.4560045059  
H -25.7005638439 -32.4909412425 59.5820711788  
O -22.2723832090 -23.2151405739 60.0965032466  
H -21.3223803891 -23.2551071949 59.7528014730  
H -22.2658049484 -23.2386893743 61.0757411363  
O -28.1070131782 -23.2486097665 56.4854734807  
H -28.6007337902 -22.6378755982 55.9096489443  
H -28.4240779135 -24.1264473512 56.1224815051  
O -23.2000184625 -20.6914902141 59.2965601806  
H -23.0684746718 -21.6390752710 59.4256684621  
H -26.5516978982 -35.3367563425 60.0315889153  
O -21.3428022725 -35.9268639492 62.6353659753  
H -34.8083209254 -35.5828061307 62.6909953960  
H -21.2389783393 -36.8399826978 62.2333133417  
O -25.4884562014 -34.9026774873 61.8500706560  
H -25.8111323166 -35.8274793389 62.0613023702  
H -24.5651341319 -34.9305883521 61.6586894402  
O -25.1973129286 -23.9541345784 57.5352286649  
H -25.8168696148 -23.8319975813 56.8328572016  
H -25.2591300448 -24.8421745422 57.8488345217  
O -17.5908044049 -26.9303974429 55.0188578315  
H -17.1477267529 -27.7736637775 55.2237662014  
H -16.8384220875 -26.3401650887 54.9314516050  
O -31.4211200407 -30.8338882026 56.9357115982  
H -31.5597402648 -31.8128998407 56.9088173747  
H -17.8925572698 -30.4107926677 56.9705300127  
O -26.8298415960 -22.4759676092 59.3541906596  
H -27.2152057164 -21.5875806827 59.1853013391  
H -26.2628126560 -22.8141219848 58.6613442338  
O -16.3539016593 -18.3449501152 54.9748345489  
H -16.0947532172 -19.2521168165 54.8458063097  
H -17.2603265294 -18.4810664701 55.2591449122  
O -16.3578253361 -29.2800678434 54.8010626461  
H -16.5461784516 -29.5750187999 53.9278808463  
H -16.7243657494 -29.9190758026 55.4391601168  
O -20.7899934075 -20.3304438139 58.2745796856  
H -21.7804324087 -20.4665252006 58.3491791390  
H -20.6816255049 -19.7403232787 57.5228221035  
O -25.3343657474 -28.4082465658 63.3096425801  
H -25.5710042039 -28.2856701321 64.2490994307  
H -25.2759428135 -27.4975461514 62.9091907931  
O -27.3399259758 -19.9290491210 58.3619058698  
H -26.4755859951 -19.6525160913 58.0022756721  
H -31.1042184778 -34.8188716522 59.3412238018  
O -19.6015453516 -20.8160865311 54.7864148994  
H -20.3942527602 -21.4026261479 54.7565591095  
H -19.8064688233 -19.9018819813 55.1177901539  
O -29.6681354251 -25.8433151959 60.8174445309  
H -30.4239437140 -25.2897470344 61.3238723655  
H -29.6557805442 -25.5196549375 59.9180888886  
O -26.5513222113 -32.4056541119 61.6339563596  
H -27.3697195532 -32.5500861209 61.0665362681  
H -26.2353794338 -33.3212422479 61.9028985952  
O -22.8312687371 -31.0069737550 53.9561357895  
H -23.1247900358 -31.6197807386 54.6376962465  
H -23.1849207801 -30.1490360789 54.1915402880  
O -21.5019421731 -34.5651047857 58.5859443571  
H -17.3705716833 -20.3155803876 58.0823180041  
H -20.8630962538 -33.8703961282 58.5710564833  

